 Version
   1.400000    
 CONTROL PARAMETER
           4           1      1           1           2
           4           0          33           0          20          20
           0           0           0           0
           0           0           0
 OPTION
          1           0
 MATERIALS
   1.000000    
    1      0.2000E+11          0.1670      0.1000E+09      0.7200E+04
 CONNECTIVITY-materail
      1
 OUTPUT
               0         20          2          0    0.00000
 STRESS X range:
  -20493.4658730268          -11762.4388530266     
 STRESS Y range:
  -96227.5307825745           27584.6330653012     
 STRESS XY range:
  -4559.96320233233           4559.96320233278     
 »æÍ¼µÄ·¶Î§²ÎÊý
  -23.0000000000000           23.0000000000000     
  0.000000000000000E+000      10.0000000000000     
