 title="Stress components of modle suanli1 at STEP  1 SUB-STEP 1"
 variables="x","y","Stress11","Stress22","Stress12","Von Mises Stress","Max. Principal Stress","Mid. Principal Stress","Min. Principal Stress"
 zone I=   21 ,j=   21 ,f=point, T="    1"
     0.000000000000000E+00     0.371794871794872E+01    -0.141516720677080E+05    -0.115684703061145E+06     0.355782077278631E-09     0.109298162672964E+06     0.000000000000000E+00    -0.141516720677080E+05    -0.115684703061145E+06
     0.000000000000000E+00     0.356923076923077E+01    -0.146770472547420E+05    -0.118993373933156E+06     0.350504518507297E-09     0.112376008933828E+06     0.000000000000000E+00    -0.146770472547421E+05    -0.118993373933156E+06
     0.000000000000000E+00     0.342051282051282E+01    -0.152298807222311E+05    -0.122304156395197E+06     0.343542121306457E-09     0.115445130796505E+06     0.000000000000000E+00    -0.152298807222311E+05    -0.122304156395197E+06
     0.000000000000000E+00     0.327179487179487E+01    -0.158104445472893E+05    -0.125616890363655E+06     0.334877735899145E-09     0.118505334994336E+06     0.000000000000000E+00    -0.158104445472893E+05    -0.125616890363655E+06
     0.000000000000000E+00     0.312307692307692E+01    -0.164188469185810E+05    -0.128931407573124E+06     0.324500350428587E-09     0.121556494474720E+06     0.000000000000000E+00    -0.164188469185810E+05    -0.128931407573124E+06
     0.000000000000000E+00     0.297435897435897E+01    -0.170550148629541E+05    -0.132247531973542E+06     0.312405242843058E-09     0.124598553850640E+06     0.000000000000000E+00    -0.170550148629541E+05    -0.132247531973542E+06
     0.000000000000000E+00     0.282564102564102E+01    -0.177186769720734E+05    -0.135565080127318E+06     0.298594132780725E-09     0.127631534504986E+06     0.000000000000000E+00    -0.177186769720734E+05    -0.135565080127318E+06
     0.000000000000000E+00     0.267692307692308E+01    -0.184093461290538E+05    -0.138883861606462E+06     0.283075333454503E-09     0.130655539337485E+06     0.000000000000000E+00    -0.184093461290538E+05    -0.138883861606462E+06
     0.000000000000000E+00     0.252820512820513E+01    -0.191263022350933E+05    -0.142203679389722E+06     0.265863903536901E-09     0.133670757154334E+06     0.000000000000000E+00    -0.191263022350933E+05    -0.142203679389722E+06
     0.000000000000000E+00     0.237948717948718E+01    -0.198685749361067E+05    -0.145524330259712E+06     0.246981799044876E-09     0.136677466711736E+06     0.000000000000000E+00    -0.198685749361067E+05    -0.145524330259712E+06
     0.000000000000000E+00     0.223076923076923E+01    -0.206349263493583E+05    -0.148845605200045E+06     0.226458025224679E-09     0.139676040436728E+06     0.000000000000000E+00    -0.206349263493583E+05    -0.148845605200045E+06
     0.000000000000000E+00     0.208205128205128E+01    -0.214238337900956E+05    -0.152167289792460E+06     0.204328788436710E-09     0.142666947861953E+06     0.000000000000000E+00    -0.214238337900956E+05    -0.152167289792460E+06
     0.000000000000000E+00     0.193333333333333E+01    -0.222334724981824E+05    -0.155489164613961E+06     0.180637648040364E-09     0.145650758825573E+06     0.000000000000000E+00    -0.222334724981824E+05    -0.155489164613961E+06
     0.000000000000000E+00     0.178461538461538E+01    -0.230616983647319E+05    -0.158811005633943E+06     0.155435668278881E-09     0.148628146503280E+06     0.000000000000000E+00    -0.230616983647319E+05    -0.158811005633943E+06
     0.000000000000000E+00     0.163589743589744E+01    -0.239060306587399E+05    -0.162132584611325E+06     0.128781570164202E-09     0.151599890356511E+06     0.000000000000000E+00    -0.239060306587399E+05    -0.162132584611325E+06
     0.000000000000000E+00     0.148717948717949E+01    -0.247636347537185E+05    -0.165453669491681E+06     0.100741883361811E-09     0.154566879099384E+06     0.000000000000000E+00    -0.247636347537184E+05    -0.165453669491681E+06
     0.000000000000000E+00     0.133846153846154E+01    -0.256313048543287E+05    -0.168774024804373E+06     0.713910980755922E-10     0.157530113806693E+06     0.000000000000000E+00    -0.256313048543287E+05    -0.168774024804373E+06
     0.000000000000000E+00     0.118974358974359E+01    -0.265054467230141E+05    -0.172093412059681E+06     0.408118169326757E-10     0.160490711306293E+06     0.000000000000000E+00    -0.265054467230141E+05    -0.172093412059681E+06
     0.000000000000000E+00     0.104102564102564E+01    -0.273820604066341E+05    -0.175411590145934E+06     0.909490686828944E-11     0.163449908021503E+06     0.000000000000000E+00    -0.273820604066341E+05    -0.175411590145934E+06
     0.000000000000000E+00     0.892307692307692E+00    -0.282567229630969E+05    -0.178728315726643E+06    -0.236603489893909E-10     0.166409064452473E+06     0.000000000000000E+00    -0.282567229630969E+05    -0.178728315726643E+06
     0.000000000000000E+00     0.743589743589743E+00    -0.291245711879929E+05    -0.182043343637634E+06    -0.573460994343913E-10     0.169369670509746E+06     0.000000000000000E+00    -0.291245711879929E+05    -0.182043343637634E+06
    -0.520000000000000E+00     0.376923076923077E+01    -0.139909324381872E+05    -0.114430656041857E+06    -0.667060077527594E+03     0.108122451704360E+06     0.000000000000000E+00    -0.139865024227906E+05    -0.114435086057254E+06
    -0.540000000000000E+00     0.361794871794872E+01    -0.145161756734369E+05    -0.117787670535133E+06    -0.684381721221616E+03     0.111248520455974E+06     0.000000000000000E+00    -0.145116404648311E+05    -0.117792205743739E+06
    -0.560000000000000E+00     0.346666666666667E+01    -0.150695333348526E+05    -0.121146713879553E+06    -0.701680847025174E+03     0.114365509414167E+06     0.000000000000000E+00    -0.150648920494505E+05    -0.121151355164955E+06
    -0.580000000000000E+00     0.331538461538461E+01    -0.156513240157042E+05    -0.124507625594935E+06    -0.719055993429505E+03     0.117473208471914E+06     0.000000000000000E+00    -0.156465744609617E+05    -0.124512375149678E+06
    -0.600000000000000E+00     0.316410256410256E+01    -0.162616964813751E+05    -0.127870236357192E+06    -0.736608762134920E+03     0.120571476408227E+06     0.000000000000000E+00    -0.162568351254585E+05    -0.127875097713109E+06
    -0.620000000000000E+00     0.301282051282051E+01    -0.169006109305144E+05    -0.131234368458238E+06    -0.754443528489266E+03     0.123660246916888E+06     0.000000000000000E+00    -0.168956328709377E+05    -0.131239346517815E+06
    -0.640000000000000E+00     0.286153846153846E+01    -0.175678202561892E+05    -0.134599836265901E+06    -0.772667151926388E+03     0.126739534261856E+06     0.000000000000000E+00    -0.175627191861820E+05    -0.134604937335908E+06
    -0.660000000000000E+00     0.271025641025641E+01    -0.182628513070369E+05    -0.137966446683833E+06    -0.791388686404588E+03     0.129809438545268E+06     0.000000000000000E+00    -0.182576194785445E+05    -0.137971678512325E+06
    -0.680000000000000E+00     0.255897435897436E+01    -0.189849861484176E+05    -0.141333999611423E+06    -0.810719090845091E+03     0.132870150585550E+06     0.000000000000000E+00    -0.189796143307851E+05    -0.141339371429055E+06
    -0.700000000000000E+00     0.240769230769231E+01    -0.197332433235660E+05    -0.144702288403704E+06    -0.830770939570501E+03     0.135921956415624E+06     0.000000000000000E+00    -0.197277207571188E+05    -0.144707810970151E+06
    -0.720000000000000E+00     0.225641025641026E+01    -0.205063591147441E+05    -0.148071100331266E+06    -0.851658132743264E+03     0.138965241424868E+06     0.000000000000000E+00    -0.205006734586493E+05    -0.148076785987361E+06
    -0.740000000000000E+00     0.210512820512820E+01    -0.213027688043931E+05    -0.151440217040167E+06    -0.873495606804132E+03     0.142000494183428E+06     0.000000000000000E+00    -0.212969060783762E+05    -0.151446079766184E+06
    -0.760000000000000E+00     0.195384615384615E+01    -0.221205879362859E+05    -0.154809415011841E+06    -0.896399044910622E+03     0.145028310003820E+06     0.000000000000000E+00    -0.221145324559822E+05    -0.154815470492145E+06
    -0.780000000000000E+00     0.180256410256410E+01    -0.229575935766793E+05    -0.158178466023011E+06    -0.920484587375476E+03     0.148049394312550E+06     0.000000000000000E+00    -0.229513278826237E+05    -0.158184731717067E+06
    -0.800000000000000E+00     0.165128205128205E+01    -0.238112055754660E+05    -0.161547137605601E+06    -0.945868542105126E+03     0.151064565923852E+06     0.000000000000000E+00    -0.238047103559697E+05    -0.161553632825098E+06
    -0.820000000000000E+00     0.150000000000000E+01    -0.246784678273275E+05    -0.164915193506642E+06    -0.972667095038153E+03     0.154074760328484E+06     0.000000000000000E+00    -0.246717218357566E+05    -0.164921939498213E+06
    -0.840000000000000E+00     0.134871794871795E+01    -0.255560295328856E+05    -0.168282394148188E+06    -0.100099602058375E+04     0.157081033132952E+06     0.000000000000000E+00    -0.255490095001463E+05    -0.168289414180927E+06
    -0.860000000000000E+00     0.119743589743590E+01    -0.264401264598553E+05    -0.171648497087221E+06    -0.103097039206017E+04     0.160084563808421E+06     0.000000000000000E+00    -0.264328070031995E+05    -0.171655816543876E+06
    -0.880000000000000E+00     0.104615384615385E+01    -0.273265622041966E+05    -0.175013257475567E+06    -0.106270429213323E+04     0.163086659933856E+06     0.000000000000000E+00    -0.273189157337956E+05    -0.175020903945968E+06
    -0.900000000000000E+00     0.894871794871794E+00    -0.282106894512670E+05    -0.178376428519804E+06    -0.109631052325470E+04     0.166088762144489E+06     0.000000000000000E+00    -0.282026860763504E+05    -0.178384431894721E+06
    -0.920000000000000E+00     0.743589743589743E+00    -0.290873912369738E+05    -0.181737761941174E+06    -0.113190031810084E+04     0.169092450024344E+06     0.000000000000000E+00    -0.290789986736993E+05    -0.181746154504449E+06
    -0.104000000000000E+01     0.382051282051282E+01    -0.138626494816929E+05    -0.112948758506221E+06    -0.133352478948541E+04     0.106720011784469E+06     0.000000000000000E+00    -0.138447058324051E+05    -0.112966702155508E+06
    -0.108000000000000E+01     0.366666666666667E+01    -0.143878121529873E+05    -0.116338232931498E+06    -0.136711508490318E+04     0.109878787532036E+06     0.000000000000000E+00    -0.143694829721734E+05    -0.116356562112312E+06
    -0.112000000000000E+01     0.351282051282051E+01    -0.149413856158282E+05    -0.119729251610522E+06    -0.140059369479337E+04     0.113027884902898E+06     0.000000000000000E+00    -0.149226686360143E+05    -0.119747968590336E+06
    -0.116000000000000E+01     0.335897435897436E+01    -0.155236993874609E+05    -0.123121664447313E+06    -0.143416270419507E+04     0.116167104896228E+06     0.000000000000000E+00    -0.155045869685930E+05    -0.123140776866180E+06
    -0.120000000000000E+01     0.320512820512820E+01    -0.161349072958968E+05    -0.126515311885295E+06    -0.146803049797525E+04     0.119296319669674E+06     0.000000000000000E+00    -0.161153863267287E+05    -0.126534832854463E+06
    -0.124000000000000E+01     0.305128205128205E+01    -0.167749673377388E+05    -0.129910025491452E+06    -0.150241111925657E+04     0.122415479149583E+06     0.000000000000000E+00    -0.167550191335549E+05    -0.129929973695636E+06
    -0.128000000000000E+01     0.289743589743590E+01    -0.174436215360076E+05    -0.133305628540476E+06    -0.153752362784517E+04     0.125524617253756E+06     0.000000000000000E+00    -0.174232217275190E+05    -0.133326028348965E+06
    -0.132000000000000E+01     0.274358974358974E+01    -0.181403757979664E+05    -0.136701936598924E+06    -0.157359145865848E+04     0.128623857709252E+06     0.000000000000000E+00    -0.181194942068235E+05    -0.136722818190067E+06
    -0.136000000000000E+01     0.258974358974359E+01    -0.188644797729478E+05    -0.140098758109369E+06    -0.161084178015300E+04     0.131713419460753E+06     0.000000000000000E+00    -0.188430802699561E+05    -0.140120157612361E+06
    -0.140000000000000E+01     0.243589743589744E+01    -0.196149067101785E+05    -0.143495894974554E+06    -0.164950485275212E+04     0.134793621679053E+06     0.000000000000000E+00    -0.195929470530041E+05    -0.143517854631729E+06
    -0.144000000000000E+01     0.228205128205128E+01    -0.203903333166058E+05    -0.146893143141545E+06    -0.168981338727394E+04     0.137864888394530E+06     0.000000000000000E+00    -0.203677649645095E+05    -0.146915711493642E+06
    -0.148000000000000E+01     0.212820512820513E+01    -0.211891196147228E+05    -0.150290293185884E+06    -0.173200190335903E+04     0.140927752797233E+06     0.000000000000000E+00    -0.211658875186854E+05    -0.150313525281921E+06
    -0.152000000000000E+01     0.197435897435897E+01    -0.220092888003944E+05    -0.153687130895740E+06    -0.177630608789824E+04     0.143982861263515E+06     0.000000000000000E+00    -0.219853311678911E+05    -0.153711088528243E+06
    -0.156000000000000E+01     0.182051282051282E+01    -0.228485071006829E+05    -0.157083437856066E+06    -0.182296215346055E+04     0.147030977189146E+06     0.000000000000000E+00    -0.228237551353453E+05    -0.157108189821404E+06
    -0.160000000000000E+01     0.166666666666667E+01    -0.237040636316738E+05    -0.160478992032750E+06    -0.187220619672081E+04     0.150072984730563E+06     0.000000000000000E+00    -0.236784412491398E+05    -0.160504614415284E+06
    -0.164000000000000E+01     0.151282051282051E+01    -0.245728502563013E+05    -0.163873568356766E+06    -0.192427355688758E+04     0.153109892579372E+06     0.000000000000000E+00    -0.245462737787134E+05    -0.163900144834354E+06
    -0.168000000000000E+01     0.135897435897436E+01    -0.254513414421743E+05    -0.167266939308331E+06    -0.197939817413090E+04     0.156142837920458E+06     0.000000000000000E+00    -0.254237192750321E+05    -0.167294561475473E+06
    -0.172000000000000E+01     0.120512820512820E+01    -0.263355741194021E+05    -0.170658875501056E+06    -0.203781194801013E+04     0.159173090750912E+06     0.000000000000000E+00    -0.263068064158162E+05    -0.170687643204642E+06
    -0.176000000000000E+01     0.105128205128205E+01    -0.272211275384197E+05    -0.174049146266098E+06    -0.209974409590172E+04     0.162202058765487E+06     0.000000000000000E+00    -0.271911058572370E+05    -0.174079167947280E+06
    -0.180000000000000E+01     0.897435897435897E+00    -0.281031031278143E+05    -0.177437520236314E+06    -0.216542051142703E+04     0.165231293044187E+06     0.000000000000000E+00    -0.280717100935796E+05    -0.177468913270549E+06
    -0.184000000000000E+01     0.743589743589743E+00    -0.289761043521502E+05    -0.180823765930416E+06    -0.223506312288013E+04     0.168262494808634E+06     0.000000000000000E+00    -0.289432133264223E+05    -0.180856656956143E+06
    -0.156000000000000E+01     0.387179487179487E+01    -0.137679255678758E+05    -0.111238329580805E+06    -0.199322584099382E+04     0.105090054468378E+06     0.000000000000000E+00    -0.137271820287734E+05    -0.111279073119907E+06
    -0.162000000000000E+01     0.371538461538461E+01    -0.142931745954088E+05    -0.114644541303331E+06    -0.204142033420262E+04     0.108266030851554E+06     0.000000000000000E+00    -0.142516637125564E+05    -0.114686052186183E+06
    -0.168000000000000E+01     0.355897435897436E+01    -0.148467605600183E+05    -0.118051436060839E+06    -0.208931170047226E+04     0.111431513138503E+06     0.000000000000000E+00    -0.148044811205496E+05    -0.118093715500307E+06
    -0.174000000000000E+01     0.340256410256410E+01    -0.154289864837895E+05    -0.121458885772326E+06    -0.213720932619307E+04     0.114586343170408E+06     0.000000000000000E+00    -0.153859249564330E+05    -0.121501947299682E+06
    -0.180000000000000E+01     0.324615384615385E+01    -0.160399741176582E+05    -0.124866752297823E+06    -0.218543208255426E+04     0.117730435590167E+06     0.000000000000000E+00    -0.159961045028061E+05    -0.124910621912675E+06
    -0.186000000000000E+01     0.308974358974359E+01    -0.166796424862256E+05    -0.128274888213048E+06    -0.223430724134462E+04     0.120863785025666E+06     0.000000000000000E+00    -0.166349261610230E+05    -0.128319604538251E+06
    -0.192000000000000E+01     0.293333333333333E+01    -0.173476864325745E+05    -0.131683137584054E+06    -0.228416939075337E+04     0.123986472885936E+06     0.000000000000000E+00    -0.173020719790104E+05    -0.131728752037618E+06
    -0.198000000000000E+01     0.277692307692308E+01    -0.180435551630838E+05    -0.135091336741883E+06    -0.233535935117087E+04     0.127098673749856E+06     0.000000000000000E+00    -0.179969781685509E+05    -0.135137913736416E+06
    -0.204000000000000E+01     0.262051282051282E+01    -0.187664307922446E+05    -0.138499315057217E+06    -0.238822309098945E+04     0.130200661341642E+06     0.000000000000000E+00    -0.187188136136255E+05    -0.138546932235836E+06
    -0.210000000000000E+01     0.246410256410256E+01    -0.195152068874754E+05    -0.141906895715030E+06    -0.244311064240413E+04     0.133292814103133E+06     0.000000000000000E+00    -0.194664583715395E+05    -0.141955644230966E+06
    -0.216000000000000E+01     0.230769230769231E+01    -0.202884670139371E+05    -0.145313896489238E+06    -0.250037501721341E+04     0.136375620389981E+06     0.000000000000000E+00    -0.202384821687086E+05    -0.145363881334467E+06
    -0.222000000000000E+01     0.215128205128205E+01    -0.210844632793492E+05    -0.148720130517353E+06    -0.256037112262006E+04     0.139449683337540E+06     0.000000000000000E+00    -0.210331228931382E+05    -0.148771470903564E+06
    -0.228000000000000E+01     0.199487179487179E+01    -0.219010948788044E+05    -0.152125407075131E+06    -0.262345467703185E+04     0.142515725462711E+06     0.000000000000000E+00    -0.218482650858158E+05    -0.152178236868120E+06
    -0.234000000000000E+01     0.183846153846154E+01    -0.227358866395847E+05    -0.155529532351227E+06    -0.268998112586236E+04     0.145574593090301E+06     0.000000000000000E+00    -0.226814184334198E+05    -0.155584000557392E+06
    -0.240000000000000E+01     0.168205128205128E+01    -0.235859675659762E+05    -0.158932310221844E+06    -0.276030455733175E+04     0.148627260716684E+06     0.000000000000000E+00    -0.235296962649535E+05    -0.158988581522866E+06
    -0.246000000000000E+01     0.152564102564103E+01    -0.244480493840850E+05    -0.162333543025386E+06    -0.283477661826749E+04     0.151674835449753E+06     0.000000000000000E+00    -0.243897940551160E+05    -0.162391798354355E+06
    -0.252000000000000E+01     0.136923076923077E+01    -0.253184050866521E+05    -0.165733032337108E+06    -0.291374542990519E+04     0.154718561692272E+06     0.000000000000000E+00    -0.252579679374216E+05    -0.165793469486339E+06
    -0.258000000000000E+01     0.121282051282051E+01    -0.261928474778694E+05    -0.169130579743771E+06    -0.299755450368932E+04     0.157759826265746E+06     0.000000000000000E+00    -0.261300132302741E+05    -0.169193413991366E+06
    -0.264000000000000E+01     0.105641025641026E+01    -0.270667077181946E+05    -0.172525987618287E+06    -0.308654165707402E+04     0.160800164203626E+06     0.000000000000000E+00    -0.270012429793663E+05    -0.172591452357115E+06
    -0.270000000000000E+01     0.899999999999999E+00    -0.279348138691669E+05    -0.175919059894378E+06    -0.318103792932384E+04     0.163841265475954E+06     0.000000000000000E+00    -0.278664665199097E+05    -0.175987407243635E+06
    -0.276000000000000E+01     0.743589743589743E+00    -0.287914694382222E+05    -0.179309602841223E+06    -0.328136649731454E+04     0.166884982942071E+06     0.000000000000000E+00    -0.287199680622775E+05    -0.179381104217167E+06
    -0.208000000000000E+01     0.392307692307692E+01    -0.137073252958875E+05    -0.109299463966800E+06    -0.263989625068795E+04     0.103232589038449E+06     0.000000000000000E+00    -0.136344767813011E+05    -0.109372312481387E+06
    -0.216000000000000E+01     0.376410256410256E+01    -0.142329044382994E+05    -0.112706969760001E+06    -0.270043389976812E+04     0.106410366510262E+06     0.000000000000000E+00    -0.141589066040094E+05    -0.112780967594291E+06
    -0.224000000000000E+01     0.360512820512820E+01    -0.147863668905777E+05    -0.116113957025442E+06    -0.276034308301711E+04     0.109576651591668E+06     0.000000000000000E+00    -0.147112259761554E+05    -0.116189097939864E+06
    -0.232000000000000E+01     0.344615384615385E+01    -0.153679507189858E+05    -0.119520332561292E+06    -0.282004330739486E+04     0.112731358356542E+06     0.000000000000000E+00    -0.152916507589550E+05    -0.119596632521323E+06
    -0.240000000000000E+01     0.328717948717949E+01    -0.159777077472336E+05    -0.122925992470703E+06    -0.287996646262387E+04     0.115874474359132E+06     0.000000000000000E+00    -0.159002104688143E+05    -0.123003489749122E+06
    -0.248000000000000E+01     0.312820512820513E+01    -0.166154809148324E+05    -0.126330823195471E+06    -0.294055517300638E+04     0.119006068364994E+06     0.000000000000000E+00    -0.165367256363819E+05    -0.126409578473921E+06
    -0.256000000000000E+01     0.296923076923077E+01    -0.172808816354521E+05    -0.129734702549706E+06    -0.300226114924157E+04     0.122126297712704E+06     0.000000000000000E+00    -0.172007851435143E+05    -0.129814799041644E+06
    -0.264000000000000E+01     0.281025641025641E+01    -0.179732671552760E+05    -0.133137500753499E+06    -0.306554354024273E+04     0.125235415283720E+06     0.000000000000000E+00    -0.178917235410592E+05    -0.133219044367716E+06
    -0.272000000000000E+01     0.265128205128205E+01    -0.186917179113578E+05    -0.136539081466585E+06    -0.313086728495446E+04     0.128333776074092E+06     0.000000000000000E+00    -0.186085983506047E+05    -0.136622201027338E+06
    -0.280000000000000E+01     0.249230769230769E+01    -0.194350148899769E+05    -0.139939302822014E+06    -0.319870146416986E+04     0.131421843379313E+06     0.000000000000000E+00    -0.193501673536118E+05    -0.140024150358379E+06
    -0.288000000000000E+01     0.233333333333333E+01    -0.202016169849946E+05    -0.143338018459815E+06    -0.326951765234772E+04     0.134500194622605E+06     0.000000000000000E+00    -0.201148658716325E+05    -0.143424769573178E+06
    -0.296000000000000E+01     0.217435897435897E+01    -0.209896383562103E+05    -0.146735078560668E+06    -0.334378826942972E+04     0.137569526877661E+06     0.000000000000000E+00    -0.209007840416253E+05    -0.146823932875253E+06
    -0.304000000000000E+01     0.201538461538461E+01    -0.217968257877172E+05    -0.150130330879560E+06    -0.342198493265758E+04     0.140630662159539E+06     0.000000000000000E+00    -0.217056440907076E+05    -0.150221512576570E+06
    -0.312000000000000E+01     0.185641025641026E+01    -0.226205360462582E+05    -0.153523621779466E+06    -0.350457680839030E+04     0.143684552582063E+06     0.000000000000000E+00    -0.225267776150209E+05    -0.153617380210703E+06
    -0.320000000000000E+01     0.169743589743590E+01    -0.234577132395824E+05    -0.156914797265002E+06    -0.359202896392133E+04     0.146732285506941E+06     0.000000000000000E+00    -0.233611028677325E+05    -0.157011407636852E+06
    -0.328000000000000E+01     0.153846153846154E+01    -0.243048661748004E+05    -0.160303704016101E+06    -0.368480071929575E+04     0.149775088838710E+06     0.000000000000000E+00    -0.242051020615330E+05    -0.160403468129369E+06
    -0.336000000000000E+01     0.137948717948718E+01    -0.251580457167408E+05    -0.163690190421678E+06    -0.378334399912744E+04     0.152814336650746E+06     0.000000000000000E+00    -0.250547986913090E+05    -0.163793437447110E+06
    -0.344000000000000E+01     0.122051282051282E+01    -0.260128221463059E+05    -0.167074107613294E+06    -0.388810168441635E+04     0.155851555360611E+06     0.000000000000000E+00    -0.259057348829482E+05    -0.167181194876651E+06
    -0.352000000000000E+01     0.106153846153846E+01    -0.268642625188281E+05    -0.170455310498824E+06    -0.399950596436559E+04     0.158888430707963E+06     0.000000000000000E+00    -0.267529487744536E+05    -0.170566624243198E+06
    -0.360000000000000E+01     0.902564102564102E+00    -0.277069080224251E+05    -0.173833658796125E+06    -0.411797668819869E+04     0.161926815824800E+06     0.000000000000000E+00    -0.275909519356663E+05    -0.173949614882884E+06
    -0.368000000000000E+01     0.743589743589743E+00    -0.285347513363567E+05    -0.177209018066703E+06    -0.424391971697675E+04     0.164968740725605E+06     0.000000000000000E+00    -0.284137068329056E+05    -0.177330062570154E+06
    -0.260000000000000E+01     0.397435897435897E+01    -0.136808364207155E+05    -0.107133048725914E+06    -0.326719843363479E+04     0.101148452565632E+06     0.000000000000000E+00    -0.135667506246397E+05    -0.107247134521990E+06
    -0.270000000000000E+01     0.381282051282051E+01    -0.142070238169712E+05    -0.110526805015216E+06    -0.333724379454069E+04     0.104312840963015E+06     0.000000000000000E+00    -0.140915349907215E+05    -0.110642293841466E+06
    -0.280000000000000E+01     0.365128205128205E+01    -0.147602524330597E+05    -0.113918548206700E+06    -0.340617507699616E+04     0.107464599915678E+06     0.000000000000000E+00    -0.146433850486497E+05    -0.114035415591110E+06
    -0.290000000000000E+01     0.348974358974359E+01    -0.153406567204464E+05    -0.117308234428943E+06    -0.347452424824074E+04     0.110603748647364E+06     0.000000000000000E+00    -0.152224001686037E+05    -0.117426490980786E+06
    -0.300000000000000E+01     0.332820512820513E+01    -0.159481809972149E+05    -0.120695808352554E+06    -0.354283803243787E+04     0.113730379133092E+06     0.000000000000000E+00    -0.158284897388704E+05    -0.120815499610898E+06
    -0.310000000000000E+01     0.316666666666667E+01    -0.165825557913507E+05    -0.124081204550887E+06    -0.361167554406959E+04     0.116844664332421E+06     0.000000000000000E+00    -0.164613495303579E+05    -0.124202410811880E+06
    -0.320000000000000E+01     0.300512820512820E+01    -0.172432741840254E+05    -0.127464348860759E+06    -0.368160592133118E+04     0.119946866092734E+06     0.000000000000000E+00    -0.171204380251714E+05    -0.127587185019613E+06
    -0.330000000000000E+01     0.284358974358974E+01    -0.179295681528807E+05    -0.130845159743158E+06    -0.375320595952581E+04     0.123037342698043E+06     0.000000000000000E+00    -0.178049527143135E+05    -0.130969775181725E+06
    -0.340000000000000E+01     0.268205128205128E+01    -0.186403849153121E+05    -0.134223549643961E+06    -0.382705774445916E+04     0.126116556057051E+06     0.000000000000000E+00    -0.185138063700227E+05    -0.134350128189251E+06
    -0.350000000000000E+01     0.252051282051282E+01    -0.193743632717534E+05    -0.137599426354647E+06    -0.390374628583411E+04     0.129185078543640E+06     0.000000000000000E+00    -0.192456032987278E+05    -0.137728186327672E+06
    -0.360000000000000E+01     0.235897435897436E+01    -0.201298099489603E+05    -0.140972694373006E+06    -0.398385715064536E+04     0.132243599523890E+06     0.000000000000000E+00    -0.199986155810821E+05    -0.141103888740884E+06
    -0.370000000000000E+01     0.219743589743590E+01    -0.209046759432944E+05    -0.144343256263862E+06    -0.406797409657409E+04     0.135292931626543E+06     0.000000000000000E+00    -0.207707593060345E+05    -0.144477172901122E+06
    -0.380000000000000E+01     0.203589743589744E+01    -0.216965328640074E+05    -0.147711014019778E+06    -0.415667670538262E+04     0.138334016838641E+06     0.000000000000000E+00    -0.215595708063967E+05    -0.147847976077389E+06
    -0.390000000000000E+01     0.187435897435897E+01    -0.225025492765252E+05    -0.151075870421774E+06    -0.425053801630902E+04     0.141367932535153E+06     0.000000000000000E+00    -0.223621829038690E+05    -0.151216236794430E+06
    -0.400000000000000E+01     0.171282051282051E+01    -0.233194670457313E+05    -0.154437730400040E+06    -0.435012215946180E+04     0.144395897580706E+06     0.000000000000000E+00    -0.231753011719658E+05    -0.154581896273805E+06
    -0.410000000000000E+01     0.155128205128205E+01    -0.241435776792515E+05    -0.157796502394649E+06    -0.445598198921454E+04     0.147419278673190E+06     0.000000000000000E+00    -0.239951802257261E+05    -0.157944899848175E+06
    -0.420000000000000E+01     0.138974358974359E+01    -0.249706986707375E+05    -0.161152099716273E+06    -0.456865671760054E+04     0.150439597132891E+06     0.000000000000000E+00    -0.248176000474692E+05    -0.161305198339541E+06
    -0.430000000000000E+01     0.122820512820513E+01    -0.257961498431510E+05    -0.164504441906893E+06    -0.468866954770748E+04     0.153458536376825E+06     0.000000000000000E+00    -0.256378423581328E+05    -0.164662749391912E+06
    -0.440000000000000E+01     0.106666666666667E+01    -0.266147296920477E+05    -0.167853456100517E+06    -0.481652530707202E+04     0.156477950355884E+06     0.000000000000000E+00    -0.264506670438607E+05    -0.168017518748704E+06
    -0.450000000000000E+01     0.905128205128205E+00    -0.274206917288612E+05    -0.171199078383889E+06    -0.495270808107453E+04     0.159499873271929E+06     0.000000000000000E+00    -0.272502886474511E+05    -0.171369481465299E+06
    -0.460000000000000E+01     0.743589743589743E+00    -0.282077208241870E+05    -0.174541255157207E+06    -0.509767884633369E+04     0.162526530932744E+06     0.000000000000000E+00    -0.280303529339752E+05    -0.174718623047419E+06
    -0.312000000000000E+01     0.402564102564102E+01    -0.136878307795175E+05    -0.104740780066257E+06    -0.386875228425077E+04     0.988393412553216E+05     0.000000000000000E+00    -0.135237469048489E+05    -0.104904863940926E+06
    -0.324000000000000E+01     0.386153846153846E+01    -0.142148927265826E+05    -0.108106265063064E+06    -0.394492500855693E+04     0.101975467932930E+06     0.000000000000000E+00    -0.140494349570023E+05    -0.108271722832644E+06
    -0.336000000000000E+01     0.369743589743590E+01    -0.147677574895214E+05    -0.111468007799646E+06    -0.401931788641632E+04     0.105097743391008E+06     0.000000000000000E+00    -0.146009833332896E+05    -0.111634781955877E+06
    -0.348000000000000E+01     0.353333333333333E+01    -0.153464179487044E+05    -0.114826030097067E+06    -0.409257780003445E+04     0.108206326347385E+06     0.000000000000000E+00    -0.151783338516262E+05    -0.114994114194145E+06
    -0.360000000000000E+01     0.336923076923077E+01    -0.159506746591675E+05    -0.118180341301850E+06    -0.416536800953551E+04     0.111301445583845E+06     0.000000000000000E+00    -0.157812367453302E+05    -0.118349779215687E+06
    -0.372000000000000E+01     0.320512820512820E+01    -0.165801114041797E+05    -0.121530940038325E+06    -0.423836487830159E+04     0.114383408615099E+06     0.000000000000000E+00    -0.164092262825448E+05    -0.121701825159960E+06
    -0.384000000000000E+01     0.304102564102564E+01    -0.172340707488094E+05    -0.124877815960978E+06    -0.431225459831189E+04     0.117452610093145E+06     0.000000000000000E+00    -0.170615963309114E+05    -0.125050290378876E+06
    -0.396000000000000E+01     0.287692307692308E+01    -0.179116295934916E+05    -0.128220951506795E+06    -0.438772991548198E+04     0.120509539920793E+06     0.000000000000000E+00    -0.177373758756766E+05    -0.128395205224610E+06
    -0.408000000000000E+01     0.271282051282051E+01    -0.186115747275946E+05    -0.131560323647615E+06    -0.446548685500298E+04     0.123554791068208E+06     0.000000000000000E+00    -0.184353045001729E+05    -0.131736593875037E+06
    -0.420000000000000E+01     0.254871794871795E+01    -0.193323783829870E+05    -0.134895905642473E+06    -0.454622144668077E+04     0.126589067107617E+06     0.000000000000000E+00    -0.191538078383504E+05    -0.135074476187109E+06
    -0.432000000000000E+01     0.238461538461538E+01    -0.200721737876041E+05    -0.138227668789947E+06    -0.463062645027525E+04     0.129613189504085E+06     0.000000000000000E+00    -0.198909730097675E+05    -0.138408869567783E+06
    -0.444000000000000E+01     0.222051282051282E+01    -0.208287307190157E+05    -0.141555584180509E+06    -0.471938808083954E+04     0.132628104725033E+06     0.000000000000000E+00    -0.206445240481521E+05    -0.141739790851373E+06
    -0.456000000000000E+01     0.205641025641026E+01    -0.215994310579921E+05    -0.144879624448872E+06    -0.481318273405921E+04     0.135634891258033E+06     0.000000000000000E+00    -0.214117973353209E+05    -0.145067258171544E+06
    -0.468000000000000E+01     0.189230769230769E+01    -0.223812443420713E+05    -0.148199765526335E+06    -0.491267371159147E+04     0.138634766655653E+06     0.000000000000000E+00    -0.221897170528675E+05    -0.148391292815539E+06
    -0.480000000000000E+01     0.172820512820513E+01    -0.231707033191260E+05    -0.151515988393130E+06    -0.501850794640442E+04     0.141629094757797E+06     0.000000000000000E+00    -0.229747706645801E+05    -0.151711921047676E+06
    -0.492000000000000E+01     0.156410256410256E+01    -0.239638795009303E+05    -0.154828280830775E+06    -0.513131272811626E+04     0.144619393276022E+06     0.000000000000000E+00    -0.237629844429752E+05    -0.155029175888730E+06
    -0.504000000000000E+01     0.140000000000000E+01    -0.247563587167264E+05    -0.158136639174414E+06    -0.525169242833451E+04     0.147607341960744E+06     0.000000000000000E+00    -0.245498990536125E+05    -0.158343098837528E+06
    -0.516000000000000E+01     0.123589743589744E+01    -0.255432166667921E+05    -0.161441070065170E+06    -0.538022522599523E+04     0.150594791610892E+06     0.000000000000000E+00    -0.253305452109041E+05    -0.161653741521058E+06
    -0.528000000000000E+01     0.107179487179487E+01    -0.263189944760068E+05    -0.164741592202492E+06    -0.551745983270223E+04     0.153583774226025E+06     0.000000000000000E+00    -0.260994194189064E+05    -0.164961167259592E+06
    -0.540000000000000E+01     0.907692307692307E+00    -0.270776742474192E+05    -0.168038238096498E+06    -0.566391221806632E+04     0.156576514643095E+06     0.000000000000000E+00    -0.268504598099991E+05    -0.168265452533918E+06
    -0.552000000000000E+01     0.743589743589743E+00    -0.278126546158135E+05    -0.171331055820329E+06    -0.582006233504449E+04     0.159575444043076E+06     0.000000000000000E+00    -0.275770220933332E+05    -0.171566688342809E+06
    -0.364000000000000E+01     0.407692307692308E+01    -0.137270252179565E+05    -0.102125180128241E+06    -0.443816325921923E+04     0.963078428472871E+05     0.000000000000000E+00    -0.135047593683185E+05    -0.102347445977879E+06
    -0.378000000000000E+01     0.391025641025641E+01    -0.142551661842702E+05    -0.105448517854061E+06    -0.451657490375193E+04     0.994012670002166E+05     0.000000000000000E+00    -0.140320177500380E+05    -0.105671666288293E+06
    -0.392000000000000E+01     0.374358974358974E+01    -0.148074682126285E+05    -0.108766219077197E+06    -0.459234863854881E+04     0.102479598914503E+06     0.000000000000000E+00    -0.145835452217571E+05    -0.108990142068069E+06
    -0.406000000000000E+01     0.357692307692308E+01    -0.153837463174652E+05    -0.112078389878142E+06    -0.466624956333750E+04     0.105543172521219E+06     0.000000000000000E+00    -0.151590863766618E+05    -0.112303049818946E+06
    -0.420000000000000E+01     0.341025641025641E+01    -0.159836234705859E+05    -0.115385122424076E+06    -0.473905981052505E+04     0.108592386513962E+06     0.000000000000000E+00    -0.157581955807640E+05    -0.115610550313898E+06
    -0.434000000000000E+01     0.324358974358974E+01    -0.166065056540006E+05    -0.118686497170814E+06    -0.481157413577413E+04     0.111627713366285E+06     0.000000000000000E+00    -0.163802121700384E+05    -0.118912790654776E+06
    -0.448000000000000E+01     0.307692307692308E+01    -0.172515569127553E+05    -0.121982585064758E+06    -0.488459550857918E+04     0.114649708182064E+06     0.000000000000000E+00    -0.170242355667495E+05    -0.122209906410763E+06
    -0.462000000000000E+01     0.291025641025641E+01    -0.179176744077640E+05    -0.125273449744846E+06    -0.495893070284257E+04     0.117659017350300E+06     0.000000000000000E+00    -0.176891003275304E+05    -0.125502023825079E+06
    -0.476000000000000E+01     0.274358974358974E+01    -0.186034634686409E+05    -0.128559149744500E+06    -0.503538588745076E+04     0.120656386997677E+06     0.000000000000000E+00    -0.183733511369615E+05    -0.128789262076179E+06
    -0.490000000000000E+01     0.257692307692308E+01    -0.193072126465318E+05    -0.131839740693579E+06    -0.511476221685046E+04     0.123642671255108E+06     0.000000000000000E+00    -0.190752177614856E+05    -0.132071735578625E+06
    -0.504000000000000E+01     0.241025641025641E+01    -0.200268687669468E+05    -0.135115277520324E+06    -0.519785142162479E+04     0.126618840378900E+06     0.000000000000000E+00    -0.197925899795076E+05    -0.135349556307763E+06
    -0.518000000000000E+01     0.224358974358974E+01    -0.207600119825914E+05    -0.138385816653312E+06    -0.528543139906942E+04     0.129585988793545E+06     0.000000000000000E+00    -0.205229925044310E+05    -0.138622836131472E+06
    -0.532000000000000E+01     0.207692307692308E+01    -0.215038308261990E+05    -0.141651418223404E+06    -0.537826180376875E+04     0.132545343151790E+06     0.000000000000000E+00    -0.212635599181766E+05    -0.141891689131426E+06
    -0.546000000000000E+01     0.191025641025641E+01    -0.222550972633629E+05    -0.144912148265693E+06    -0.547707963817208E+04     0.135498270538677E+06     0.000000000000000E+00    -0.220110116333608E+05    -0.145156233895695E+06
    -0.560000000000000E+01     0.174358974358974E+01    -0.230101417453678E+05    -0.148168080921456E+06    -0.558259484316974E+04     0.138446286979811E+06     0.000000000000000E+00    -0.227616269027558E+05    -0.148416595764068E+06
    -0.574000000000000E+01     0.157692307692308E+01    -0.237648282620220E+05    -0.151419300640103E+06    -0.569548588866925E+04     0.141391066450176E+06     0.000000000000000E+00    -0.235112198948334E+05    -0.151672909007292E+06
    -0.588000000000000E+01     0.141025641025641E+01    -0.245145293944895E+05    -0.154665904381128E+06    -0.581639536417153E+04     0.144334450618298E+06     0.000000000000000E+00    -0.242551148540589E+05    -0.154925318921558E+06
    -0.602000000000000E+01     0.124358974358974E+01    -0.252541013681217E+05    -0.157908003816053E+06    -0.594592556934698E+04     0.147278459601200E+06     0.000000000000000E+00    -0.249881213640468E+05    -0.158173983820128E+06
    -0.616000000000000E+01     0.107692307692308E+01    -0.259778591052893E+05    -0.161145727530385E+06    -0.608463410461169E+04     0.150225304048115E+06     0.000000000000000E+00    -0.257045097306422E+05    -0.161419076905032E+06
    -0.630000000000000E+01     0.910256410256410E+00    -0.266795512782146E+05    -0.164379223225562E+06    -0.623302946170360E+04     0.153177398914912E+06     0.000000000000000E+00    -0.263979865003323E+05    -0.164660788003445E+06
    -0.644000000000000E+01     0.743589743589743E+00    -0.273523353618030E+05    -0.167608659920903E+06    -0.639156661425865E+04     0.156137379335892E+06     0.000000000000000E+00    -0.270616701270340E+05    -0.167899325155672E+06
    -0.416000000000000E+01     0.412820512820513E+01    -0.137964425165359E+05    -0.992896137704633E+05    -0.496905046040797E+04     0.935574698640405E+05     0.000000000000000E+00    -0.135085995398639E+05    -0.995774567471353E+05
    -0.432000000000000E+01     0.395897435897436E+01    -0.143257513912806E+05    -0.102557699971200E+06    -0.504534860876207E+04     0.965943036157425E+05     0.000000000000000E+00    -0.140381815643984E+05    -0.102845269798082E+06
    -0.448000000000000E+01     0.378974358974359E+01    -0.148771699797596E+05    -0.105818170975391E+06    -0.511795533775492E+04     0.996148632441635E+05     0.000000000000000E+00    -0.145900494471818E+05    -0.106105291507969E+06
    -0.464000000000000E+01     0.362051282051282E+01    -0.154503018136422E+05    -0.109071238158980E+06    -0.518775898636359E+04     0.102619694994788E+06     0.000000000000000E+00    -0.151637130310720E+05    -0.109357826941550E+06
    -0.480000000000000E+01     0.345128205128205E+01    -0.160445620818498E+05    -0.112317096908885E+06    -0.525566442686732E+04     0.105609401200528E+06     0.000000000000000E+00    -0.157584973636586E+05    -0.112603161627077E+06
    -0.496000000000000E+01     0.328205128205128E+01    -0.166591525454510E+05    -0.115555929322522E+06    -0.532258725522821E+04     0.108584649542546E+06     0.000000000000000E+00    -0.163735178782053E+05    -0.115841563989768E+06
    -0.512000000000000E+01     0.311282051282051E+01    -0.172930364525576E+05    -0.118787906907312E+06    -0.538944798147178E+04     0.111546182281302E+06     0.000000000000000E+00    -0.170076554564318E+05    -0.119073287903437E+06
    -0.528000000000000E+01     0.294358974358974E+01    -0.179449134532199E+05    -0.122013193280198E+06    -0.545716622006760E+04     0.114494825425303E+06     0.000000000000000E+00    -0.176595313917329E+05    -0.122298575341685E+06
    -0.544000000000000E+01     0.277435897435897E+01    -0.186131945143217E+05    -0.125231946867163E+06    -0.552665488030990E+04     0.117431497828395E+06     0.000000000000000E+00    -0.183274822731907E+05    -0.125517659108294E+06
    -0.560000000000000E+01     0.260512820512820E+01    -0.192959768344764E+05    -0.128444323602738E+06    -0.559881435669818E+04     0.120357220230468E+06     0.000000000000000E+00    -0.190095348122710E+05    -0.128730765624944E+06
    -0.576000000000000E+01     0.243589743589744E+01    -0.199910187589221E+05    -0.131650479629523E+06    -0.567452671931782E+04     0.123273124282112E+06     0.000000000000000E+00    -0.197033806354015E+05    -0.131938117753044E+06
    -0.592000000000000E+01     0.226666666666667E+01    -0.206957146944172E+05    -0.134850573997698E+06    -0.575464990422069E+04     0.126180461621231E+06     0.000000000000000E+00    -0.204063510666864E+05    -0.135139937625429E+06
    -0.608000000000000E+01     0.209743589743590E+01    -0.214070700241355E+05    -0.138044771364536E+06    -0.584001190380579E+04     0.129080613099523E+06     0.000000000000000E+00    -0.211153919257799E+05    -0.138336449462892E+06
    -0.624000000000000E+01     0.192820512820513E+01    -0.221216760225624E+05    -0.141233244693923E+06    -0.593140495719981E+04     0.131975098288978E+06     0.000000000000000E+00    -0.218270383663774E+05    -0.141527882350108E+06
    -0.640000000000000E+01     0.175897435897436E+01    -0.228356847703896E+05    -0.144416177955866E+06    -0.602957974063779E+04     0.134865585433477E+06     0.000000000000000E+00    -0.225373897808095E+05    -0.144714472945446E+06
    -0.656000000000000E+01     0.158974358974359E+01    -0.235447840694110E+05    -0.147593768826013E+06    -0.613523955784369E+04     0.137753902047961E+06     0.000000000000000E+00    -0.232420847957689E+05    -0.147896468099655E+06
    -0.672000000000000E+01     0.142051282051282E+01    -0.242441723574180E+05    -0.150766231385165E+06    -0.624903453041104E+04     0.140642046407494E+06     0.000000000000000E+00    -0.239362763831456E+05    -0.151074127359437E+06
    -0.688000000000000E+01     0.125128205128205E+01    -0.249285336230949E+05    -0.153933798818790E+06    -0.637155578818353E+04     0.143532200210553E+06     0.000000000000000E+00    -0.246146071082061E+05    -0.154247725333678E+06
    -0.704000000000000E+01     0.108205128205128E+01    -0.255920123209147E+05    -0.157096726116538E+06    -0.650332965963562E+04     0.146426742744638E+06     0.000000000000000E+00    -0.252711845347784E+05    -0.157417553902675E+06
    -0.720000000000000E+01     0.912820512820513E+00    -0.262281882860341E+05    -0.160255292771759E+06    -0.664481186225316E+04     0.149328266927373E+06     0.000000000000000E+00    -0.258995568036000E+05    -0.160583924254193E+06
    -0.736000000000000E+01     0.743589743589743E+00    -0.268300516491892E+05    -0.163409805481010E+06    -0.679638169291402E+04     0.152239597641834E+06     0.000000000000000E+00    -0.264926883954267E+05    -0.163747168734773E+06
    -0.468000000000000E+01     0.417948717948718E+01    -0.138933723169335E+05    -0.962383053556060E+05    -0.545507471778677E+04     0.905926935526786E+05     0.000000000000000E+00    -0.135335641638840E+05    -0.965981135086555E+05
    -0.486000000000000E+01     0.400769230769231E+01    -0.144237648951025E+05    -0.994389353059910E+05    -0.552449441372789E+04     0.935597303322709E+05     0.000000000000000E+00    -0.140662729569627E+05    -0.997964272441308E+05
    -0.504000000000000E+01     0.383589743589744E+01    -0.149738007671113E+05    -0.102629978678609E+06    -0.558898081931165E+04     0.965094632630111E+05     0.000000000000000E+00    -0.146188829429717E+05    -0.102984896502749E+06
    -0.522000000000000E+01     0.366410256410256E+01    -0.155428421173924E+05    -0.105811775884358E+06    -0.564955326337297E+04     0.994426894567086E+05     0.000000000000000E+00    -0.151906345463507E+05    -0.106163983455400E+06
    -0.540000000000000E+01     0.349230769230769E+01    -0.161300710231794E+05    -0.108984648367260E+06    -0.570724580065930E+04     0.102360249199752E+06     0.000000000000000E+00    -0.157805942227535E+05    -0.109334125167686E+06
    -0.558000000000000E+01     0.332051282051282E+01    -0.167344646787987E+05    -0.112148901835899E+06    -0.576309969643892E+04     0.105263035339470E+06     0.000000000000000E+00    -0.163876301232723E+05    -0.112495736391425E+06
    -0.576000000000000E+01     0.314871794871795E+01    -0.173547706199611E+05    -0.115304829494857E+06    -0.581815591110925E+04     0.108152002826903E+06     0.000000000000000E+00    -0.170103875851901E+05    -0.115649212529628E+06
    -0.594000000000000E+01     0.297692307692308E+01    -0.179894819480534E+05    -0.118452715276148E+06    -0.587344758480520E+04     0.111028178375976E+06     0.000000000000000E+00    -0.176472644761046E+05    -0.118794932748097E+06
    -0.612000000000000E+01     0.280512820512820E+01    -0.186368125544299E+05    -0.121592837070652E+06    -0.592999252200748E+04     0.113892670223176E+06     0.000000000000000E+00    -0.182963864208131E+05    -0.121933263204269E+06
    -0.630000000000000E+01     0.263333333333333E+01    -0.192946723447040E+05    -0.124725469959554E+06    -0.598878567615089E+04     0.116746677996579E+06     0.000000000000000E+00    -0.189555819424426E+05    -0.125064560361815E+06
    -0.648000000000000E+01     0.246153846153846E+01    -0.199606424630399E+05    -0.127850889445776E+06    -0.605079163423264E+04     0.119591502729112E+06     0.000000000000000E+00    -0.196223575509202E+05    -0.128189174357895E+06
    -0.666000000000000E+01     0.228974358974359E+01    -0.206319505164442E+05    -0.130969374685414E+06    -0.611693710142070E+04     0.122428557078937E+06     0.000000000000000E+00    -0.202938728129804E+05    -0.131307452388878E+06
    -0.684000000000000E+01     0.211794871794872E+01    -0.213054457990572E+05    -0.134081211719173E+06    -0.618810338566213E+04     0.125259375850107E+06     0.000000000000000E+00    -0.209669154384333E+05    -0.134419742079797E+06
    -0.702000000000000E+01     0.194615384615385E+01    -0.219775745164450E+05    -0.137186696703803E+06    -0.626511888229130E+04     0.128085626939489E+06     0.000000000000000E+00    -0.216378764173046E+05    -0.137526394802943E+06
    -0.720000000000000E+01     0.177435897435897E+01    -0.226443550098908E+05    -0.140286139143532E+06    -0.634875155863833E+04     0.130909122871324E+06     0.000000000000000E+00    -0.223027252416013E+05    -0.140627768911822E+06
    -0.738000000000000E+01     0.160256410256410E+01    -0.233013529806862E+05    -0.143379865121505E+06    -0.643970143863734E+04     0.133731833118852E+06     0.000000000000000E+00    -0.229569852437504E+05    -0.143724232858441E+06
    -0.756000000000000E+01     0.143076923076923E+01    -0.239436567144234E+05    -0.146468220531216E+06    -0.653859308743477E+04     0.136555897452861E+06     0.000000000000000E+00    -0.235957090810718E+05    -0.146816168164568E+06
    -0.774000000000000E+01     0.125897435897436E+01    -0.245658523052864E+05    -0.149551574307945E+06    -0.664596809599771E+04     0.139383640599595E+06     0.000000000000000E+00    -0.242134543918457E+05    -0.149903972221386E+06
    -0.792000000000000E+01     0.108717948717949E+01    -0.251619988803428E+05    -0.152630321660194E+06    -0.676227756572222E+04     0.142217588534808E+06     0.000000000000000E+00    -0.248042596434891E+05    -0.152988060897047E+06
    -0.810000000000000E+01     0.915384615384615E+00    -0.257256038238350E+05    -0.155704887301119E+06    -0.688787459304164E+04     0.145060486786168E+06     0.000000000000000E+00    -0.253616201869364E+05    -0.156068870938018E+06
    -0.828000000000000E+01     0.743589743589743E+00    -0.262495980014723E+05    -0.158775728679972E+06    -0.702300675403492E+04     0.147915321161996E+06     0.000000000000000E+00    -0.258784645234413E+05    -0.159146862158003E+06
    -0.520000000000000E+01     0.423076923076923E+01    -0.140143320483372E+05    -0.929763555363223E+05    -0.588996667234489E+04     0.874189784580636E+05     0.000000000000000E+00    -0.135774030171518E+05    -0.934132845675077E+05
    -0.540000000000000E+01     0.405641025641026E+01    -0.145454897515983E+05    -0.960983537345128E+05    -0.594738916509693E+04     0.903038291372515E+05     0.000000000000000E+00    -0.141140481770118E+05    -0.965297953090993E+05
    -0.560000000000000E+01     0.388205128205128E+01    -0.150934045238028E+05    -0.992089042048070E+05    -0.599846670323743E+04     0.931706081255291E+05     0.000000000000000E+00    -0.146677938047152E+05    -0.996345149238946E+05
    -0.580000000000000E+01     0.370769230769231E+01    -0.156571722221517E+05    -0.102308503040664E+06    -0.604436123306690E+04     0.960204035227139E+05     0.000000000000000E+00    -0.152375797641759E+05    -0.102728095498639E+06
    -0.600000000000000E+01     0.353333333333333E+01    -0.162357226715916E+05    -0.105397623168666E+06    -0.608624620041767E+04     0.988543284772996E+05     0.000000000000000E+00    -0.158221897263566E+05    -0.105811156113901E+06
    -0.620000000000000E+01     0.335897435897436E+01    -0.168277957416162E+05    -0.108476718128812E+06    -0.612529698258019E+04     0.101673530574586E+06     0.000000000000000E+00    -0.164202279205973E+05    -0.108884285949831E+06
    -0.640000000000000E+01     0.318461538461538E+01    -0.174319174230672E+05    -0.111546225854806E+06    -0.616268132022937E+04     0.104479201627426E+06     0.000000000000000E+00    -0.170300956285882E+05    -0.111948047649285E+06
    -0.660000000000000E+01     0.301025641025641E+01    -0.180463759049364E+05    -0.114606572454348E+06    -0.619954974935086E+04     0.107272587815493E+06     0.000000000000000E+00    -0.176499674591520E+05    -0.115002980900133E+06
    -0.680000000000000E+01     0.283589743589744E+01    -0.186691976511668E+05    -0.117658175989425E+06    -0.623702603316741E+04     0.110055000143063E+06     0.000000000000000E+00    -0.182777674456723E+05    -0.118049606194919E+06
    -0.700000000000000E+01     0.266153846153846E+01    -0.192981234774541E+05    -0.120701450256599E+06    -0.627619759406518E+04     0.112827825209728E+06     0.000000000000000E+00    -0.189111450108443E+05    -0.121088428723209E+06
    -0.720000000000000E+01     0.248717948717949E+01    -0.199305846280483E+05    -0.123736808567301E+06    -0.631810594552001E+04     0.115592536313976E+06     0.000000000000000E+00    -0.195474508453701E+05    -0.124119942349979E+06
    -0.740000000000000E+01     0.231282051282051E+01    -0.205636788525549E+05    -0.126764667528119E+06    -0.636373712402381E+04     0.118350704937138E+06     0.000000000000000E+00    -0.201837127482231E+05    -0.127144633632451E+06
    -0.760000000000000E+01     0.213846153846154E+01    -0.211941464827366E+05    -0.129785450821088E+06    -0.641401212101082E+04     0.121104012684964E+06     0.000000000000000E+00    -0.208166114760709E+05    -0.130162985827754E+06
    -0.780000000000000E+01     0.196410256410256E+01    -0.218183465093147E+05    -0.132799592983982E+06    -0.646977731478394E+04     0.123854263796609E+06     0.000000000000000E+00    -0.214424566482761E+05    -0.133175482845021E+06
    -0.800000000000000E+01     0.178974358974359E+01    -0.224322326587705E+05    -0.135807543190605E+06    -0.653179490244108E+04     0.126603398365921E+06     0.000000000000000E+00    -0.220571627514626E+05    -0.136182613097913E+06
    -0.820000000000000E+01     0.161538461538461E+01    -0.230313294701467E+05    -0.138809769031077E+06    -0.660073333180142E+04     0.129353506457870E+06     0.000000000000000E+00    -0.226562252838091E+05    -0.139184873217414E+06
    -0.840000000000000E+01     0.144102564102564E+01    -0.236107083718491E+05    -0.141806760292129E+06    -0.667715773333179E+04     0.132106843343345E+06     0.000000000000000E+00    -0.232346970738613E+05    -0.142182771590117E+06
    -0.860000000000000E+01     0.126666666666667E+01    -0.241649637584478E+05    -0.144799032737393E+06    -0.676152035207293E+04     0.134865846118240E+06     0.000000000000000E+00    -0.237871648016070E+05    -0.145176831694233E+06
    -0.880000000000000E+01     0.109230769230769E+01    -0.246881890674788E+05    -0.147787131887688E+06    -0.685415097956584E+04     0.137633152017197E+06     0.000000000000000E+00    -0.243077257407054E+05    -0.148167595214462E+06
    -0.900000000000000E+01     0.917948717948718E+00    -0.251739528562454E+05    -0.150771636801318E+06    -0.695524738577810E+04     0.140411618777984E+06     0.000000000000000E+00    -0.247899647300202E+05    -0.151155624927543E+06
    -0.920000000000000E+01     0.743589743589743E+00    -0.256152748786196E+05    -0.153753163854354E+06    -0.706486575103017E+04     0.143204347458394E+06     0.000000000000000E+00    -0.252269313699422E+05    -0.154141507363031E+06
    -0.572000000000000E+01     0.428205128205128E+01    -0.141550278537790E+05    -0.895097580411302E+05    -0.626755485900859E+04     0.840428177276189E+05     0.000000000000000E+00    -0.136372874454036E+05    -0.900274984495056E+05
    -0.594000000000000E+01     0.410512820512820E+01    -0.146863326871364E+05    -0.925431097934542E+05    -0.630757366042653E+04     0.868340549332854E+05     0.000000000000000E+00    -0.141786347099686E+05    -0.930508077706221E+05
    -0.616000000000000E+01     0.392820512820513E+01    -0.152310845459808E+05    -0.955633769907410E+05    -0.633969734811780E+04     0.896068433283591E+05     0.000000000000000E+00    -0.147338434915568E+05    -0.960606180451650E+05
    -0.638000000000000E+01     0.375128205128205E+01    -0.157880940546710E+05    -0.985712411395283E+05    -0.636524727698198E+04     0.923626038294776E+05     0.000000000000000E+00    -0.153015261243050E+05    -0.990578090698944E+05
    -0.660000000000000E+01     0.357435897435897E+01    -0.163560272178557E+05    -0.101567354778214E+06    -0.638555159686238E+04     0.951027579588805E+05     0.000000000000000E+00    -0.158801653130517E+05    -0.102043216683018E+06
    -0.682000000000000E+01     0.339743589743590E+01    -0.169333830004545E+05    -0.104552345801687E+06    -0.640193324258973E+04     0.978287371131174E+05     0.000000000000000E+00    -0.164680926926416E+05    -0.105017636109500E+06
    -0.704000000000000E+01     0.322051282051282E+01    -0.175184709076408E+05    -0.107526821785952E+06    -0.641569792402571E+04     0.100541992553552E+06     0.000000000000000E+00    -0.170634670008090E+05    -0.107981825692784E+06
    -0.726000000000000E+01     0.304358974358974E+01    -0.181093885648234E+05    -0.110491374312765E+06    -0.642812211610674E+04     0.103244006039299E+06     0.000000000000000E+00    -0.176642519186163E+05    -0.110936510958972E+06
    -0.748000000000000E+01     0.286666666666667E+01    -0.187039992976289E+05    -0.113446583294255E+06    -0.644044104888756E+04     0.105936301046074E+06     0.000000000000000E+00    -0.182681936378156E+05    -0.113882388954068E+06
    -0.770000000000000E+01     0.268974358974359E+01    -0.192999097118838E+05    -0.116393021297561E+06    -0.645383669758491E+04     0.108620454537267E+06     0.000000000000000E+00    -0.188727982184523E+05    -0.116820132790993E+06
    -0.792000000000000E+01     0.251282051282051E+01    -0.198944472735966E+05    -0.119331257869456E+06    -0.646942577262119E+04     0.111298109277450E+06     0.000000000000000E+00    -0.194753088024439E+05    -0.119750396340609E+06
    -0.814000000000000E+01     0.233589743589744E+01    -0.204846378889398E+05    -0.122261863860978E+06    -0.648824770966808E+04     0.113970986704549E+06     0.000000000000000E+00    -0.200726827496170E+05    -0.122673819000301E+06
    -0.836000000000000E+01     0.215897435897436E+01    -0.210671834842320E+05    -0.125185415752059E+06    -0.651125265969026E+04     0.116640900405349E+06     0.000000000000000E+00    -0.206615687616680E+05    -0.125591030474623E+06
    -0.858000000000000E+01     0.198205128205128E+01    -0.216384395859203E+05    -0.128102499976152E+06    -0.653928947898901E+04     0.119309770270437E+06     0.000000000000000E+00    -0.212382840565690E+05    -0.128502655505504E+06
    -0.880000000000000E+01     0.180512820512820E+01    -0.221943929005622E+05    -0.131013717244867E+06    -0.657309371924589E+04     0.121979637439094E+06     0.000000000000000E+00    -0.217987916509433E+05    -0.131409318494486E+06
    -0.902000000000000E+01     0.162820512820513E+01    -0.227306388948076E+05    -0.133919686872592E+06    -0.661327561756639E+04     0.124652680182154E+06     0.000000000000000E+00    -0.223386778007317E+05    -0.134311647966668E+06
    -0.924000000000000E+01     0.145128205128205E+01    -0.232423593753814E+05    -0.136821051101126E+06    -0.666030808652358E+04     0.127331230911209E+06     0.000000000000000E+00    -0.228531296409170E+05    -0.137210280835590E+06
    -0.946000000000000E+01     0.127435897435897E+01    -0.237243000690648E+05    -0.139718479424309E+06    -0.671451470420180E+04     0.130017794545559E+06     0.000000000000000E+00    -0.233369130530735E+05    -0.140105866440300E+06
    -0.968000000000000E+01     0.109743589743590E+01    -0.241707482026784E+05    -0.142612672912650E+06    -0.677605770424024E+04     0.132715068513408E+06     0.000000000000000E+00    -0.237843507749843E+05    -0.142999070340344E+06
    -0.990000000000000E+01     0.920512820512820E+00    -0.245755100830635E+05    -0.145504368537956E+06    -0.684492596587671E+04     0.135425964710512E+06     0.000000000000000E+00    -0.241893007495284E+05    -0.145890577871491E+06
    -0.101200000000000E+02     0.743589743589743E+00    -0.249318886770646E+05    -0.148394343497963E+06    -0.692092300399116E+04     0.138153633786742E+06     0.000000000000000E+00    -0.245451346905965E+05    -0.148781097484431E+06
    -0.624000000000000E+01     0.433333333333333E+01    -0.143103155164703E+05    -0.858454164603040E+05    -0.658179378955870E+04     0.804717695263317E+05     0.000000000000000E+00    -0.137097800303746E+05    -0.864459519463998E+05
    -0.648000000000000E+01     0.415384615384615E+01    -0.148407812607229E+05    -0.887814013561633E+05    -0.659878804318675E+04     0.831590804937273E+05     0.000000000000000E+00    -0.142564933387741E+05    -0.893656892781121E+05
    -0.672000000000000E+01     0.397435897435897E+01    -0.153809568509241E+05    -0.917030144771984E+05    -0.660624380493110E+04     0.858281070553951E+05     0.000000000000000E+00    -0.148133583028021E+05    -0.922706130253205E+05
    -0.696000000000000E+01     0.379487179487179E+01    -0.159293560950519E+05    -0.946111557014675E+05    -0.660566521788454E+04     0.884806465728497E+05     0.000000000000000E+00    -0.153786376019709E+05    -0.951618741945486E+05
    -0.720000000000000E+01     0.361538461538461E+01    -0.164843786334489E+05    -0.975066880938187E+05    -0.659855703870023E+04     0.911184649843432E+05     0.000000000000000E+00    -0.159505018425597E+05    -0.980405648847078E+05
    -0.744000000000000E+01     0.343589743589744E+01    -0.170442897925178E+05    -0.100390442744648E+06    -0.658640975353373E+04     0.937433058451814E+05     0.000000000000000E+00    -0.165270107780040E+05    -0.100907721759162E+06
    -0.768000000000000E+01     0.325641025641026E+01    -0.176072004384172E+05    -0.103263223608660E+06    -0.657068469398511E+04     0.963569004969510E+05     0.000000000000000E+00    -0.171060939424714E+05    -0.103764330104606E+06
    -0.792000000000000E+01     0.307692307692308E+01    -0.181710468307570E+05    -0.106125812343626E+06    -0.655279915304104E+04     0.989609792427912E+05     0.000000000000000E+00    -0.176855307742932E+05    -0.106611328400090E+06
    -0.816000000000000E+01     0.289743589743590E+01    -0.187335704762944E+05    -0.108978973149140E+06    -0.653411150101689E+04     0.101557283425813E+06     0.000000000000000E+00    -0.182629303141635E+05    -0.109449613311271E+06
    -0.840000000000000E+01     0.271794871794872E+01    -0.192922979826287E+05    -0.111823457605384E+06    -0.651590630149882E+04     0.104147578327547E+06     0.000000000000000E+00    -0.188357105688779E+05    -0.112280045019135E+06
    -0.864000000000000E+01     0.253846153846154E+01    -0.198445209118977E+05    -0.114660009511882E+06    -0.649937942728585E+04     0.106733666824438E+06     0.000000000000000E+00    -0.194010776346388E+05    -0.115103452789141E+06
    -0.888000000000000E+01     0.235897435897436E+01    -0.203872756344731E+05    -0.117489369726258E+06    -0.648562317633197E+04     0.109317403763974E+06     0.000000000000000E+00    -0.199560046743969E+05    -0.117920640686334E+06
    -0.912000000000000E+01     0.217948717948718E+01    -0.209173231826557E+05    -0.120312281003001E+06    -0.647561138768821E+04     0.111900711048784E+06     0.000000000000000E+00    -0.204972108411390E+05    -0.120732393344518E+06
    -0.936000000000000E+01     0.200000000000000E+01    -0.214311291043716E+05    -0.123129492832217E+06    -0.647018455744476E+04     0.114485593447326E+06     0.000000000000000E+00    -0.210211402333157E+05    -0.123539481703273E+06
    -0.960000000000000E+01     0.182051282051282E+01    -0.219248433168671E+05    -0.125941766278393E+06    -0.647003495467303E+04     0.117074155183932E+06     0.000000000000000E+00    -0.215239409595649E+05    -0.126342668635696E+06
    -0.984000000000000E+01     0.164102564102564E+01    -0.223942799604052E+05    -0.128749878819154E+06    -0.647569173736776E+04     0.119668617398964E+06     0.000000000000000E+00    -0.220014443774131E+05    -0.129142714402146E+06
    -0.100800000000000E+02     0.146153846153846E+01    -0.228348972519603E+05    -0.131554629184019E+06    -0.648750606838909E+04     0.122271336611561E+06     0.000000000000000E+00    -0.224491445546476E+05    -0.131940381881332E+06
    -0.103200000000000E+02     0.128205128205128E+01    -0.232417773389143E+05    -0.134356842193167E+06    -0.650563623140469E+04     0.124884824362707E+06     0.000000000000000E+00    -0.228621779825236E+05    -0.134736441549558E+06
    -0.105600000000000E+02     0.110256410256410E+01    -0.236096061527522E+05    -0.137157373596190E+06    -0.653003274683178E+04     0.127511768264600E+06     0.000000000000000E+00    -0.232353035469773E+05    -0.137531676201965E+06
    -0.108000000000000E+02     0.923076923076922E+00    -0.239326532627576E+05    -0.139957114910852E+06    -0.656042348777930E+04     0.130155054733055E+06     0.000000000000000E+00    -0.235628827377456E+05    -0.140326885435864E+06
    -0.110400000000000E+02     0.743589743589744E+00    -0.242047517297080E+05    -0.142756998261852E+06    -0.659629879598994E+04     0.132817793732025E+06     0.000000000000000E+00    -0.238388600460774E+05    -0.143122889945483E+06
    -0.676000000000000E+01     0.438461538461538E+01    -0.144741613861366E+05    -0.819911610317656E+05    -0.682679203554807E+04     0.767144954141538E+05     0.000000000000000E+00    -0.137908058613716E+05    -0.826745165565306E+05
    -0.702000000000000E+01     0.420256410256410E+01    -0.150023610261333E+05    -0.848224883086911E+05    -0.681500719756313E+04     0.792888437032792E+05     0.000000000000000E+00    -0.143433810122761E+05    -0.854814683225483E+05
    -0.728000000000000E+01     0.402051282051282E+01    -0.155361035511486E+05    -0.876386426942245E+05    -0.679200777087417E+04     0.818457896750787E+05     0.000000000000000E+00    -0.149018799778573E+05    -0.882728662675158E+05
    -0.754000000000000E+01     0.383846153846154E+01    -0.160736029967818E+05    -0.904407787395187E+05    -0.675951221816512E+04     0.843875524968730E+05     0.000000000000000E+00    -0.154641992901433E+05    -0.910501824461572E+05
    -0.780000000000000E+01     0.365641025641026E+01    -0.166130006375122E+05    -0.932300037833515E+05    -0.671923202840841E+04     0.869162788003053E+05     0.000000000000000E+00    -0.160281946651231E+05    -0.938148097557407E+05
    -0.806000000000000E+01     0.347435897435897E+01    -0.171523480173370E+05    -0.960073832446565E+05    -0.667285348297178E+04     0.894340514075238E+05     0.000000000000000E+00    -0.165916658868140E+05    -0.965680653751795E+05
    -0.832000000000000E+01     0.329230769230769E+01    -0.176895899804088E+05    -0.987739459150530E+05    -0.662201942172514E+04     0.919428996985931E+05     0.000000000000000E+00    -0.171523407906280E+05    -0.993111951048338E+05
    -0.858000000000000E+01     0.311025641025641E+01    -0.182225477016739E+05    -0.101530689251377E+06    -0.656831100914725E+04     0.944448114248263E+05     0.000000000000000E+00    -0.177078584564676E+05    -0.102045378496583E+06
    -0.884000000000000E+01     0.292820512820513E+01    -0.187489017175100E+05    -0.104278584668209E+06    -0.651322950043261E+04     0.969417457879132E+05     0.000000000000000E+00    -0.182557517353602E+05    -0.104771734650359E+06
    -0.910000000000000E+01     0.274615384615385E+01    -0.192661749563642E+05    -0.107018582830410E+06    -0.645817800759817E+04     0.994356476200526E+05     0.000000000000000E+00    -0.187934292429044E+05    -0.107491328543870E+06
    -0.936000000000000E+01     0.256410256410256E+01    -0.197717157693909E+05    -0.109751618945645E+06    -0.640444326559020E+04     0.101928462517878E+06     0.000000000000000E+00    -0.193181569578560E+05    -0.110205177757180E+06
    -0.962000000000000E+01     0.238205128205128E+01    -0.202626809610897E+05    -0.112478618056919E+06    -0.635317739839104E+04     0.104422152804181E+06     0.000000000000000E+00    -0.198270395644490E+05    -0.112914259453559E+06
    -0.988000000000000E+01     0.220000000000000E+01    -0.207360188199434E+05    -0.115200500335101E+06    -0.630537968512587E+04     0.106918714217222E+06     0.000000000000000E+00    -0.203170016722424E+05    -0.115619517482802E+06
    -0.101400000000000E+02     0.201794871794872E+01    -0.211884521490555E+05    -0.117918186371463E+06    -0.626187832616955E+04     0.109420193258319E+06     0.000000000000000E+00    -0.207847690372298E+05    -0.118321869483289E+06
    -0.104000000000000E+02     0.183589743589744E+01    -0.216164612967889E+05    -0.120632602470202E+06    -0.622331220925339E+04     0.111928705164774E+06     0.000000000000000E+00    -0.212268498925235E+05    -0.121022213874468E+06
    -0.106600000000000E+02     0.165384615384615E+01    -0.220162671874028E+05    -0.123344685940976E+06    -0.619011267557194E+04     0.114446452517023E+06     0.000000000000000E+00    -0.216395164761273E+05    -0.123721436652252E+06
    -0.109200000000000E+02     0.147179487179487E+01    -0.223838143516915E+05    -0.126055390391432E+06    -0.616248528588978E+04     0.116975744536258E+06     0.000000000000000E+00    -0.220187868172073E+05    -0.126420417925916E+06
    -0.111800000000000E+02     0.128974358974359E+01    -0.227147539576219E+05    -0.128765691019734E+06    -0.614039158664832E+04     0.119519017181203E+06     0.000000000000000E+00    -0.223604068110700E+05    -0.129120038166286E+06
    -0.114400000000000E+02     0.110769230769231E+01    -0.230044268409712E+05    -0.131476589907099E+06    -0.612353087607259E+04     0.122078854210029E+06     0.000000000000000E+00    -0.226598325770887E+05    -0.131821184170982E+06
    -0.117000000000000E+02     0.925641025641025E+00    -0.232478465359654E+05    -0.134189121310324E+06    -0.611132197027802E+04     0.124658009434819E+06     0.000000000000000E+00    -0.229122130536059E+05    -0.134524754792683E+06
    -0.119600000000000E+02     0.743589743589743E+00    -0.234396823059167E+05    -0.136904356954314E+06    -0.610288496937725E+04     0.127259430460850E+06     0.000000000000000E+00    -0.231123727400748E+05    -0.137231666520156E+06
    -0.728000000000000E+01     0.443589743589744E+01    -0.146396033053522E+05    -0.779557654269763E+05    -0.699684031121913E+04     0.727808023454668E+05     0.000000000000000E+00    -0.138756259676966E+05    -0.787197427646319E+05
    -0.756000000000000E+01     0.425128205128205E+01    -0.151635926940451E+05    -0.806767112258388E+05    -0.695047614325957E+04     0.752345987198618E+05     0.000000000000000E+00    -0.144343147513811E+05    -0.814059891685027E+05
    -0.784000000000000E+01     0.406666666666667E+01    -0.156885262285117E+05    -0.833823168463514E+05    -0.689126554318806E+04     0.776727981690512E+05     0.000000000000000E+00    -0.149941149199958E+05    -0.840767281548673E+05
    -0.812000000000000E+01     0.388205128205128E+01    -0.162123252067700E+05    -0.860740312428795E+05    -0.682118267823276E+04     0.800980883419354E+05     0.000000000000000E+00    -0.155525470742148E+05    -0.867338093754347E+05
    -0.840000000000000E+01     0.369743589743590E+01    -0.167328926638066E+05    -0.887532426218050E+05    -0.674218589801805E+04     0.825130323190119E+05     0.000000000000000E+00    -0.161071594010060E+05    -0.893789758846055E+05
    -0.868000000000000E+01     0.351282051282051E+01    -0.172481006284447E+05    -0.914212840926497E+05    -0.665619563132166E+04     0.849200769763756E+05     0.000000000000000E+00    -0.166555173883416E+05    -0.920138673327527E+05
    -0.896000000000000E+01     0.332820512820513E+01    -0.177557773802120E+05    -0.940794393192003E+05    -0.656507228283165E+04     0.873215636290388E+05     0.000000000000000E+00    -0.171951921412224E+05    -0.946400245581900E+05
    -0.924000000000000E+01     0.314358974358974E+01    -0.182536947062092E+05    -0.967289481706317E+05    -0.647059412990353E+04     0.897197406407677E+05     0.000000000000000E+00    -0.177237474619974E+05    -0.972588954148435E+05
    -0.952000000000000E+01     0.295897435897436E+01    -0.187395551579775E+05    -0.993710123726311E+05    -0.637443521931727E+04     0.921167776961142E+05     0.000000000000000E+00    -0.182387258812188E+05    -0.998718416493898E+05
    -0.980000000000000E+01     0.277435897435897E+01    -0.192109793083669E+05    -0.102006801158523E+06    -0.627814326403437E+04     0.945147814404872E+05     0.000000000000000E+00    -0.187376338419245E+05    -0.102480146624965E+06
    -0.100800000000000E+02     0.258974358974359E+01    -0.196654930084042E+05    -0.104637456920392E+06    -0.618311753995490E+04     0.969158122087618E+05     0.000000000000000E+00    -0.192179262492274E+05    -0.105085023679569E+06
    -0.103600000000000E+02     0.240512820512820E+01    -0.201005146441611E+05    -0.107264100860208E+06    -0.609058678267460E+04     0.993219015839279E+05     0.000000000000000E+00    -0.196769905976877E+05    -0.107687624906681E+06
    -0.106400000000000E+02     0.222051282051282E+01    -0.205133423936221E+05    -0.109887838640949E+06    -0.600158708424189E+04     0.101735070555780E+06     0.000000000000000E+00    -0.201121308807488E+05    -0.110289050153823E+06
    -0.109200000000000E+02     0.203589743589744E+01    -0.209011414835526E+05    -0.112509766037728E+06    -0.591693978991493E+04     0.104157348086327E+06     0.000000000000000E+00    -0.205205514693672E+05    -0.112890356051914E+06
    -0.112000000000000E+02     0.185128205128205E+01    -0.212609314463669E+05    -0.115130974588914E+06    -0.583722939491870E+04     0.106590789933740E+06     0.000000000000000E+00    -0.208993411209642E+05    -0.115492564914317E+06
    -0.114800000000000E+02     0.166666666666667E+01    -0.215895733769963E+05    -0.117752557247256E+06    -0.576278144120203E+04     0.109037497640342E+06     0.000000000000000E+00    -0.212454572452467E+05    -0.118096673379005E+06
    -0.117600000000000E+02     0.148205128205128E+01    -0.218837571897571E+05    -0.120375614031009E+06    -0.569364041419468E+04     0.111499637652141E+06     0.000000000000000E+00    -0.215557105107851E+05    -0.120703660709981E+06
    -0.120400000000000E+02     0.129743589743590E+01    -0.221399888752187E+05    -0.123001257675059E+06    -0.562954763956438E+04     0.113979460607409E+06     0.000000000000000E+00    -0.218267498261742E+05    -0.123314496724104E+06
    -0.123200000000000E+02     0.111282051282051E+01    -0.223545777570713E+05    -0.125630619282045E+06    -0.556991917997385E+04     0.116479320909301E+06     0.000000000000000E+00    -0.220550476730034E+05    -0.125930149366113E+06
    -0.126000000000000E+02     0.928205128205127E+00    -0.225236237489945E+05    -0.128264853973481E+06    -0.551382373183794E+04     0.119001696781784E+06     0.000000000000000E+00    -0.222368857057923E+05    -0.128551592016683E+06
    -0.128800000000000E+02     0.743589743589743E+00    -0.226430046115248E+05    -0.130905146540886E+06    -0.545996052208060E+04     0.121549211098381E+06     0.000000000000000E+00    -0.223683404678001E+05    -0.131179810684611E+06
    -0.780000000000000E+01     0.448717948717949E+01    -0.147987115358750E+05    -0.737489635368288E+05    -0.708643955642139E+04     0.686816913390147E+05     0.000000000000000E+00    -0.139588135658715E+05    -0.745888615068323E+05
    -0.810000000000000E+01     0.430000000000000E+01    -0.153159492941688E+05    -0.763555100472032E+05    -0.699974543030119E+04     0.710089741187958E+05     0.000000000000000E+00    -0.145235366730713E+05    -0.771479226683007E+05
    -0.840000000000000E+01     0.411282051282051E+01    -0.158290993083173E+05    -0.789473418978256E+05    -0.689871197298368E+04     0.733236288196032E+05     0.000000000000000E+00    -0.150838808979607E+05    -0.796925603081821E+05
    -0.870000000000000E+01     0.392564102564103E+01    -0.163358085853833E+05    -0.815262456605462E+05    -0.678562213490944E+04     0.756288584676492E+05     0.000000000000000E+00    -0.156369895295687E+05    -0.822250647163608E+05
    -0.900000000000000E+01     0.373846153846154E+01    -0.168337758276680E+05    -0.840939298284475E+05    -0.666273318489785E+04     0.779276762125480E+05     0.000000000000000E+00    -0.161801235597112E+05    -0.847475820964043E+05
    -0.930000000000000E+01     0.355128205128205E+01    -0.173207441250484E+05    -0.866520306906818E+05    -0.653225017422412E+04     0.802229133438264E+05     0.000000000000000E+00    -0.167106575564482E+05    -0.872621172592820E+05
    -0.960000000000000E+01     0.336410256410256E+01    -0.177944936473137E+05    -0.892021182073075E+05    -0.639629940069623E+04     0.825172303772851E+05     0.000000000000000E+00    -0.172260733333744E+05    -0.897705385212468E+05
    -0.990000000000000E+01     0.317692307692308E+01    -0.182528343365026E+05    -0.917457018841263E+05    -0.625690187273198E+04     0.848131307114922E+05     0.000000000000000E+00    -0.177239516644660E+05    -0.922745845561628E+05
    -0.102000000000000E+02     0.298974358974359E+01    -0.186935985992404E+05    -0.942842366475204E+05    -0.611594677343597E+04     0.871129763552889E+05     0.000000000000000E+00    -0.182019623373822E+05    -0.947758729093785E+05
    -0.105000000000000E+02     0.280256410256410E+01    -0.191146339990756E+05    -0.968191287192890E+05    -0.597516492467660E+04     0.894190052334151E+05     0.000000000000000E+00    -0.186578528694319E+05    -0.972759098489326E+05
    -0.108000000000000E+02     0.261538461538461E+01    -0.195137959488173E+05    -0.993517414914858E+05    -0.583610225116309E+04     0.917333495930280E+05     0.000000000000000E+00    -0.190894362276001E+05    -0.997761012127030E+05
    -0.111000000000000E+02     0.242820512820513E+01    -0.198889404028717E+05    -0.101883401401256E+06    -0.570009324452243E+04     0.940580550613067E+05     0.000000000000000E+00    -0.194945778957523E+05    -0.102277763908376E+06
    -0.114000000000000E+02     0.224102564102564E+01    -0.202379165495795E+05    -0.104415403805673E+06    -0.556823442737645E+04     0.963950999448333E+05     0.000000000000000E+00    -0.198711826178853E+05    -0.104782137737368E+06
    -0.117000000000000E+02     0.205384615384615E+01    -0.205585595035525E+05    -0.106949018856576E+06    -0.544135781741875E+04     0.987464144155497E+05     0.000000000000000E+00    -0.202171811162315E+05    -0.107290397243897E+06
    -0.120000000000000E+02     0.186666666666667E+01    -0.208486829980109E+05    -0.109485497375406E+06    -0.532000439149175E+04     0.101113899295837E+06     0.000000000000000E+00    -0.205305170379026E+05    -0.109803663335514E+06
    -0.123000000000000E+02     0.167948717948718E+01    -0.211060720771199E+05    -0.112026076728042E+06    -0.520439754966365E+04     0.103499444236322E+06     0.000000000000000E+00    -0.208091343247537E+05    -0.112323014480408E+06
    -0.126000000000000E+02     0.149230769230769E+01    -0.213284757883270E+05    -0.114571986699641E+06    -0.509441657930547E+04     0.105904945173786E+06     0.000000000000000E+00    -0.210509651297836E+05    -0.114849497358185E+06
    -0.129000000000000E+02     0.130512820512820E+01    -0.215135998746989E+05    -0.117124455369474E+06    -0.498957011916804E+04     0.108332321062211E+06     0.000000000000000E+00    -0.212539183214224E+05    -0.117384136922751E+06
    -0.132000000000000E+02     0.111794871794872E+01    -0.216590994672583E+05    -0.119684714985761E+06    -0.488896962345896E+04     0.110783529986662E+06     0.000000000000000E+00    -0.214158685264230E+05    -0.119927945926596E+06
    -0.135000000000000E+02     0.930769230769231E+00    -0.217625717773210E+05    -0.122254007840508E+06    -0.479130282591965E+04     0.113260584896268E+06     0.000000000000000E+00    -0.215346455648136E+05    -0.122481934053016E+06
    -0.138000000000000E+02     0.743589743589744E+00    -0.218215487888329E+05    -0.124833592144348E+06    -0.469480720390232E+04     0.115765569327789E+06     0.000000000000000E+00    -0.216080240286001E+05    -0.125047116904581E+06
    -0.832000000000000E+01     0.453846153846154E+01    -0.149425496849814E+05    -0.693814662575383E+05    -0.709032901952899E+04     0.644294182899354E+05     0.000000000000000E+00    -0.140342338857829E+05    -0.702897820567368E+05
    -0.864000000000000E+01     0.434871794871795E+01    -0.154498133373806E+05    -0.718714427532231E+05    -0.695770653383713E+04     0.666260435670406E+05     0.000000000000000E+00    -0.146044798715389E+05    -0.727167762190648E+05
    -0.896000000000000E+01     0.415897435897436E+01    -0.159475234334206E+05    -0.743482931578373E+05    -0.680950441906750E+04     0.688144541726059E+05     0.000000000000000E+00    -0.151640488620205E+05    -0.751317677292373E+05
    -0.928000000000000E+01     0.396923076923077E+01    -0.164330840264815E+05    -0.768141883849516E+05    -0.664838115982449E+04     0.709984133051104E+05     0.000000000000000E+00    -0.157097168014510E+05    -0.775375556099820E+05
    -0.960000000000000E+01     0.377948717948718E+01    -0.169040388929639E+05    -0.792711994039830E+05    -0.647695900753760E+04     0.731814125443067E+05     0.000000000000000E+00    -0.162384955257248E+05    -0.799367427712221E+05
    -0.992000000000000E+01     0.358974358974359E+01    -0.173580710437056E+05    -0.817213031590623E+05    -0.629779240490779E+04     0.753666796527513E+05     0.000000000000000E+00    -0.167476362161597E+05    -0.823317379866082E+05
    -0.102400000000000E+02     0.340000000000000E+01    -0.177930022353980E+05    -0.841663884879035E+05    -0.611333641035370E+04     0.775571904296010E+05     0.000000000000000E+00    -0.172346293116009E+05    -0.847247614117006E+05
    -0.105600000000000E+02     0.321025641025641E+01    -0.182067924820032E+05    -0.866082620406707E+05    -0.592591512245794E+04     0.797556838231764E+05     0.000000000000000E+00    -0.176972012835403E+05    -0.871178532391335E+05
    -0.108800000000000E+02     0.302051282051282E+01    -0.185975395661703E+05    -0.890486541988466E+05    -0.573769010441341E+04     0.819646795026164E+05     0.000000000000000E+00    -0.181333087634833E+05    -0.895128850015336E+05
    -0.112000000000000E+02     0.283076923076923E+01    -0.189634785506526E+05    -0.914892249941016E+05    -0.555062880846950E+04     0.841864970970949E+05     0.000000000000000E+00    -0.185411305727676E+05    -0.919115729719866E+05
    -0.115200000000000E+02     0.264102564102564E+01    -0.193029812897238E+05    -0.939315700271601E+05    -0.536647300037841E+04     0.864232763385040E+05     0.000000000000000E+00    -0.189190582377317E+05    -0.943154930791522E+05
    -0.118400000000000E+02     0.245128205128205E+01    -0.196145559405953E+05    -0.963772263866701E+05    -0.518670718384147E+04     0.886769973928199E+05     0.000000000000000E+00    -0.192656855753056E+05    -0.967260967519598E+05
    -0.121600000000000E+02     0.226153846153846E+01    -0.198968464748322E+05    -0.988276785680710E+05    -0.501252702495533E+04     0.909495007374519E+05     0.000000000000000E+00    -0.195797979056354E+05    -0.991447271372679E+05
    -0.124800000000000E+02     0.207179487179487E+01    -0.201486321897708E+05    -0.101284364392461E+06    -0.484480777665831E+04     0.932425060364824E+05     0.000000000000000E+00    -0.198603613908969E+05    -0.101572635191335E+06
    -0.128000000000000E+02     0.188205128205128E+01    -0.203688272199345E+05    -0.103748680925467E+06    -0.468407270317663E+04     0.955576295817813E+05     0.000000000000000E+00    -0.201065129159086E+05    -0.104010995229493E+06
    -0.131200000000000E+02     0.169230769230769E+01    -0.205564800484513E+05    -0.106221990396110E+06    -0.453046150447073E+04     0.978964000039825E+05     0.000000000000000E+00    -0.203175508202899E+05    -0.106460919624272E+06
    -0.134400000000000E+02     0.150256410256410E+01    -0.207107730184700E+05    -0.108705626115676E+06    -0.438369874068150E+04     0.100260272111432E+06     0.000000000000000E+00    -0.204929266678952E+05    -0.108923472466251E+06
    -0.137600000000000E+02     0.131282051282051E+01    -0.208310218445770E+05    -0.111200898396582E+06    -0.424306225657661E+04     0.102650638885493E+06     0.000000000000000E+00    -0.206322381013429E+05    -0.111399682139816E+06
    -0.140800000000000E+02     0.112307692307692E+01    -0.209166751242131E+05    -0.113709100471245E+06    -0.410735160599674E+04     0.105068841845021E+06     0.000000000000000E+00    -0.207352226816950E+05    -0.113890552913763E+06
    -0.144000000000000E+02     0.933333333333334E+00    -0.209673138490902E+05    -0.116231514410952E+06    -0.397485647630190E+04     0.107516180189410E+06     0.000000000000000E+00    -0.208017524593927E+05    -0.116397075800649E+06
    -0.147200000000000E+02     0.743589743589744E+00    -0.209826509166082E+05    -0.118769417044723E+06    -0.384332511281766E+04     0.109993919336396E+06     0.000000000000000E+00    -0.208318288655710E+05    -0.118920239095761E+06
    -0.884000000000000E+01     0.458974358974359E+01    -0.150611356318008E+05    -0.648649782765348E+05    -0.700351434035819E+04     0.600375767091322E+05     0.000000000000000E+00    -0.140950284506085E+05    -0.658310854577271E+05
    -0.918000000000000E+01     0.439743589743590E+01    -0.155544339778540E+05    -0.672382040412241E+05    -0.681962724894343E+04     0.621014189930923E+05     0.000000000000000E+00    -0.146697341583958E+05    -0.681229038606823E+05
    -0.952000000000000E+01     0.420512820512820E+01    -0.160322788383326E+05    -0.696010368657476E+05    -0.661930670176730E+04     0.641632350392704E+05     0.000000000000000E+00    -0.152264751712024E+05    -0.704068405328778E+05
    -0.986000000000000E+01     0.401282051282051E+01    -0.164918770774531E+05    -0.719560822356039E+05    -0.640566925780894E+04     0.662273864270019E+05     0.000000000000000E+00    -0.157616868448662E+05    -0.726862724681907E+05
    -0.102000000000000E+02     0.382051282051282E+01    -0.169306842390484E+05    -0.743058184677080E+05    -0.618178444133172E+04     0.682978605374634E+05     0.000000000000000E+00    -0.162721959827110E+05    -0.749643067240455E+05
    -0.105400000000000E+02     0.362820512820513E+01    -0.173464124499974E+05    -0.766526024434956E+05    -0.595063747655392E+04     0.703782785241836E+05     0.000000000000000E+00    -0.167552331247596E+05    -0.772437817687333E+05
    -0.108800000000000E+02     0.343589743589744E+01    -0.177370383236536E+05    -0.789986753420289E+05    -0.571509202231963E+04     0.724719085763674E+05     0.000000000000000E+00    -0.172084390050581E+05    -0.795272746606244E+05
    -0.112200000000000E+02     0.324358974358974E+01    -0.181008108632753E+05    -0.813461683731010E+05    -0.547785290676940E+04     0.745816832213106E+05     0.000000000000000E+00    -0.176298658884717E+05    -0.818171133479046E+05
    -0.115600000000000E+02     0.305128205128205E+01    -0.184362593654541E+05    -0.836971085103418E+05    -0.524142886201110E+04     0.767102194058495E+05     0.000000000000000E+00    -0.180179746697061E+05    -0.841153932060898E+05
    -0.119000000000000E+02     0.285897435897436E+01    -0.187422013235448E+05    -0.860534242243224E+05    -0.500809525879070E+04     0.788598401225503E+05     0.000000000000000E+00    -0.183716287354514E+05    -0.864239968124158E+05
    -0.122400000000000E+02     0.266666666666667E+01    -0.190177503310943E+05    -0.884169512156605E+05    -0.477985684116299E+04     0.810325964099534E+05     0.000000000000000E+00    -0.186900856463923E+05    -0.887446159003625E+05
    -0.125800000000000E+02     0.247435897435897E+01    -0.192623239852712E+05    -0.907894381481256E+05    -0.455841046116244E+04     0.832302886593171E+05     0.000000000000000E+00    -0.189729876869856E+05    -0.910787744464112E+05
    -0.129200000000000E+02     0.228205128205128E+01    -0.194756517902947E+05    -0.931725523817436E+05    -0.434510781347389E+04     0.854544863018781E+05     0.000000000000000E+00    -0.192203522606014E+05    -0.934278519114369E+05
    -0.132600000000000E+02     0.208974358974359E+01    -0.196577830608646E+05    -0.955678857059026E+05    -0.414091817010338E+04     0.877065451277544E+05     0.000000000000000E+00    -0.194325629832672E+05    -0.957931057835000E+05
    -0.136000000000000E+02     0.189743589743590E+01    -0.198090948255897E+05    -0.979769600724573E+05    -0.394639111504895E+04     0.899876216962621E+05     0.000000000000000E+00    -0.196103621608070E+05    -0.981756927372400E+05
    -0.139400000000000E+02     0.170512820512820E+01    -0.199302997304179E+05    -0.100401233328835E+06    -0.376161927897135E+04     0.922986845331387E+05     0.000000000000000E+00    -0.197548451326806E+05    -0.100576687926572E+06
    -0.142800000000000E+02     0.151282051282051E+01    -0.200224539420651E+05    -0.102842104951138E+06    -0.358620107386486E+04     0.946405220684058E+05     0.000000000000000E+00    -0.198674567420796E+05    -0.102997102151124E+06
    -0.146200000000000E+02     0.132051282051282E+01    -0.200869650514446E+05    -0.105300921777254E+06    -0.341920342772808E+04     0.970137475450429E+05     0.000000000000000E+00    -0.199499899554421E+05    -0.105437896873257E+06
    -0.149600000000000E+02     0.112820512820513E+01    -0.201255999770961E+05    -0.107778983739956E+06    -0.325912451923469E+04     0.994188014193652E+05     0.000000000000000E+00    -0.200045864132850E+05    -0.107899997303767E+06
    -0.153000000000000E+02     0.935897435897436E+00    -0.201404928686158E+05    -0.110277549600010E+06    -0.310385651240421E+04     0.101855952075638E+06     0.000000000000000E+00    -0.200337384538007E+05    -0.110384304014825E+06
    -0.156400000000000E+02     0.743589743589743E+00    -0.201341530100847E+05    -0.112797842679278E+06    -0.295064829127282E+04     0.104325295987296E+06     0.000000000000000E+00    -0.200402919144972E+05    -0.112891703774865E+06
    -0.936000000000000E+01     0.464102564102564E+01    -0.151434024536510E+05    -0.602122148583540E+05    -0.682129563308490E+04     0.555212200526780E+05     0.000000000000000E+00    -0.141336047619117E+05    -0.612220125500933E+05
    -0.972000000000000E+01     0.444615384615385E+01    -0.156178841751916E+05    -0.624706440014658E+05    -0.658118708542583E+04     0.574523842504659E+05     0.000000000000000E+00    -0.147110090802537E+05    -0.633775190964037E+05
    -0.100800000000000E+02     0.425128205128205E+01    -0.160705787233251E+05    -0.647227507763172E+05    -0.632433305675775E+04     0.593898768550104E+05     0.000000000000000E+00    -0.152619149006326E+05    -0.655314145990098E+05
    -0.104400000000000E+02     0.405641025641026E+01    -0.164985575592510E+05    -0.669716289427242E+05    -0.605440876528997E+04     0.613386811589651E+05     0.000000000000000E+00    -0.157824710478746E+05    -0.676877154541007E+05
    -0.108000000000000E+02     0.386153846153846E+01    -0.168992738277186E+05    -0.692202115946710E+05    -0.577503189436287E+04     0.633032765274199E+05     0.000000000000000E+00    -0.162694249530151E+05    -0.698500604693744E+05
    -0.111600000000000E+02     0.366666666666667E+01    -0.172705804302027E+05    -0.714712764222205E+05    -0.548971894466129E+04     0.652876475008287E+05     0.000000000000000E+00    -0.167201440685093E+05    -0.720217127839139E+05
    -0.115200000000000E+02     0.347179487179487E+01    -0.176107480980799E+05    -0.737274509734244E+05    -0.520184158642782E+04     0.672952998082116E+05     0.000000000000000E+00    -0.171326274116402E+05    -0.742055716598640E+05
    -0.118800000000000E+02     0.327692307692308E+01    -0.179184834658035E+05    -0.759912179162333E+05    -0.491458301167616E+04     0.693292813093025E+05     0.000000000000000E+00    -0.175055086301812E+05    -0.764041927518555E+05
    -0.122400000000000E+02     0.308205128205128E+01    -0.181929471440801E+05    -0.782649203004068E+05    -0.463089428640444E+04     0.713922058969391E+05     0.000000000000000E+00    -0.178380523329934E+05    -0.786198151114935E+05
    -0.126000000000000E+02     0.288717948717949E+01    -0.184337717930451E+05    -0.805507668194240E+05    -0.435345070280854E+04     0.734862784707226E+05     0.000000000000000E+00    -0.181301456409185E+05    -0.808543929715506E+05
    -0.129600000000000E+02     0.269230769230769E+01    -0.186410801954384E+05    -0.828508370723932E+05    -0.408460813149546E+04     0.756133192439464E+05     0.000000000000000E+00    -0.183822869766812E+05    -0.831096302911504E+05
    -0.133200000000000E+02     0.249743589743590E+01    -0.188155033297805E+05    -0.851670868259624E+05    -0.382635937369661E+04     0.777747858652303E+05     0.000000000000000E+00    -0.185955740320642E+05    -0.853870161236787E+05
    -0.136800000000000E+02     0.230256410256410E+01    -0.189581984435478E+05    -0.875013532762294E+05    -0.358029051348118E+04     0.799717921169050E+05     0.000000000000000E+00    -0.187716926461467E+05    -0.876878590736305E+05
    -0.140400000000000E+02     0.210769230769231E+01    -0.190708671263490E+05    -0.898553603106521E+05    -0.334753726996942E+04     0.822051222841668E+05     0.000000000000000E+00    -0.189129080283291E+05    -0.900133194086720E+05
    -0.144000000000000E+02     0.191282051282051E+01    -0.191557733831004E+05    -0.922307237699586E+05    -0.312874134954606E+04     0.844752406616017E+05     0.000000000000000E+00    -0.190220593956097E+05    -0.923644377574493E+05
    -0.147600000000000E+02     0.171794871794872E+01    -0.192157617072019E+05    -0.946289567100568E+05    -0.292400679807355E+04     0.867822960663392E+05     0.000000000000000E+00    -0.191025586950117E+05    -0.947421597222471E+05
    -0.151200000000000E+02     0.152307692307692E+01    -0.192542751537129E+05    -0.970514746639458E+05    -0.273285635310544E+04     0.891261216503238E+05     0.000000000000000E+00    -0.191583936742309E+05    -0.971473561434278E+05
    -0.154800000000000E+02     0.132820512820513E+01    -0.192753734125281E+05    -0.994996009036247E+05    -0.255418779609973E+04     0.915062307400503E+05     0.000000000000000E+00    -0.191941351650720E+05    -0.995808391510808E+05
    -0.158400000000000E+02     0.113333333333333E+01    -0.192837508815528E+05    -0.101974571702004E+06    -0.238623030463212E+04     0.939218098745689E+05     0.000000000000000E+00    -0.192149480666460E+05    -0.102043374516911E+06
    -0.162000000000000E+02     0.938461538461538E+00    -0.192847547398795E+05    -0.104477541594815E+06    -0.222650080460947E+04     0.963717106576964E+05     0.000000000000000E+00    -0.192266051635763E+05    -0.104535691171118E+06
    -0.165600000000000E+02     0.743589743589743E+00    -0.192844030209631E+05    -0.107009588642519E+06    -0.207176032248302E+04     0.988544424865558E+05     0.000000000000000E+00    -0.192355025877403E+05    -0.107058489075742E+06
    -0.988000000000000E+01     0.469230769230769E+01    -0.151771593523723E+05    -0.554369186305295E+05    -0.653929556916221E+04     0.508970561508011E+05     0.000000000000000E+00    -0.141416322903111E+05    -0.564724456925907E+05
    -0.102600000000000E+02     0.449487179487179E+01    -0.156270178565572E+05    -0.575847867931871E+05    -0.623851266262266E+04     0.526981023030992E+05     0.000000000000000E+00    -0.147190881716746E+05    -0.584927164780698E+05
    -0.106400000000000E+02     0.429743589743590E+01    -0.160483226285354E+05    -0.597319447449351E+05    -0.592139208888625E+04     0.545164655357989E+05     0.000000000000000E+00    -0.152598973960461E+05    -0.605203699774245E+05
    -0.110200000000000E+02     0.410000000000000E+01    -0.164380891864281E+05    -0.618820316308852E+05    -0.559228874868525E+04     0.563577442790873E+05     0.000000000000000E+00    -0.157600247319221E+05    -0.625600960853913E+05
    -0.114000000000000E+02     0.390256410256410E+01    -0.167938751701697E+05    -0.640384851528298E+05    -0.525549048318551E+04     0.582268669843537E+05     0.000000000000000E+00    -0.162163150105889E+05    -0.646160453124106E+05
    -0.117800000000000E+02     0.370512820512820E+01    -0.171138105829729E+05    -0.662045460131495E+05    -0.491516730941093E+04     0.601281046958480E+05     0.000000000000000E+00    -0.166265207094550E+05    -0.666918358866674E+05
    -0.121600000000000E+02     0.350769230769231E+01    -0.173966280327938E+05    -0.683832623587194E+05    -0.457532065566781E+04     0.620650927342881E+05     0.000000000000000E+00    -0.169893124028384E+05    -0.687905779886749E+05
    -0.125400000000000E+02     0.331025641025641E+01    -0.176416929737979E+05    -0.705774942248151E+05    -0.423973259696932E+04     0.640408583292166E+05     0.000000000000000E+00    -0.173042751715094E+05    -0.709149120271037E+05
    -0.129200000000000E+02     0.311282051282051E+01    -0.178490339478247E+05    -0.727899179790202E+05    -0.391191509045990E+04     0.660578511171918E+05     0.000000000000000E+00    -0.175718947317676E+05    -0.730670571950773E+05
    -0.133000000000000E+02     0.291538461538462E+01    -0.180193728258534E+05    -0.750230307651322E+05    -0.359505921083969E+04     0.681179736378661E+05     0.000000000000000E+00    -0.177935373351852E+05    -0.752488662558004E+05
    -0.136800000000000E+02     0.271794871794872E+01    -0.181541550494679E+05    -0.772791549470695E+05    -0.329198438578895E+04     0.702226093041349E+05     0.000000000000000E+00    -0.179714274076261E+05    -0.774618825889113E+05
    -0.140600000000000E+02     0.252051282051282E+01    -0.182555798723227E+05    -0.795604425527777E+05    -0.300508763139246E+04     0.723726457785403E+05     0.000000000000000E+00    -0.181086264988954E+05    -0.797073959262050E+05
    -0.144400000000000E+02     0.232307692307692E+01    -0.183266306016075E+05    -0.818688797181366E+05    -0.273629278756396E+04     0.745684922323537E+05     0.000000000000000E+00    -0.182090164906171E+05    -0.819864938291270E+05
    -0.148200000000000E+02     0.212564102564103E+01    -0.183711048395132E+05    -0.842062911308662E+05    -0.248699975347060E+04     0.768100895706427E+05     0.000000000000000E+00    -0.182772892561146E+05    -0.843001067142647E+05
    -0.152000000000000E+02     0.192820512820513E+01    -0.183936447246965E+05    -0.865743444744339E+05    -0.225803372295729E+04     0.790969133517997E+05     0.000000000000000E+00    -0.183189441695574E+05    -0.866490450295729E+05
    -0.155800000000000E+02     0.173076923076923E+01    -0.183997671737459E+05    -0.889745548719604E+05    -0.204959441997117E+04     0.814279697925653E+05     0.000000000000000E+00    -0.183402940902891E+05    -0.890340279554172E+05
    -0.159600000000000E+02     0.153333333333333E+01    -0.183958941226465E+05    -0.914082893301271E+05    -0.186120533398602E+04     0.838017859133585E+05     0.000000000000000E+00    -0.183484797464662E+05    -0.914557037063074E+05
    -0.163400000000000E+02     0.133589743589744E+01    -0.183893827682456E+05    -0.938767711830822E+05    -0.169166295542668E+04     0.862163955329228E+05     0.000000000000000E+00    -0.183514918318685E+05    -0.939146621194593E+05
    -0.167200000000000E+02     0.113846153846154E+01    -0.183885558097181E+05    -0.963810845363473E+05    -0.153898601109344E+04     0.886693234608163E+05     0.000000000000000E+00    -0.183581996142928E+05    -0.964114407317726E+05
    -0.171000000000000E+02     0.941025641025641E+00    -0.184027316900313E+05    -0.989221787107239E+05    -0.140036469958657E+04     0.911575708616703E+05     0.000000000000000E+00    -0.183783844226946E+05    -0.989465259780606E+05
    -0.174800000000000E+02     0.743589743589744E+00    -0.184422548374109E+05    -0.101500872686200E+06    -0.127210992673057E+04     0.936776053827532E+05     0.000000000000000E+00    -0.184227760129014E+05    -0.101520351510710E+06
    -0.104000000000000E+02     0.474358974358974E+01    -0.151490525806628E+05    -0.505538763694843E+05    -0.615348746023789E+04     0.461837753173673E+05     0.000000000000000E+00    -0.141100452437912E+05    -0.515928837063559E+05
    -0.108000000000000E+02     0.454358974358974E+01    -0.155674270788078E+05    -0.525978493206522E+05    -0.578821310420764E+04     0.478599580863776E+05     0.000000000000000E+00    -0.146837605571435E+05    -0.534815158423165E+05
    -0.112000000000000E+02     0.434358974358974E+01    -0.159500498080710E+05    -0.546484813128463E+05    -0.540793072599847E+04     0.495676481590232E+05     0.000000000000000E+00    -0.152085247834329E+05    -0.553900063374844E+05
    -0.116000000000000E+02     0.414358974358974E+01    -0.162939791871731E+05    -0.567100173026494E+05    -0.501781890279735E+04     0.513129954125564E+05     0.000000000000000E+00    -0.156803138562942E+05    -0.573236826335283E+05
    -0.120000000000000E+02     0.394358974358974E+01    -0.165970072939517E+05    -0.587864516402103E+05    -0.462298140860944E+04     0.531012641301242E+05     0.000000000000000E+00    -0.160963767108544E+05    -0.592870822233076E+05
    -0.124000000000000E+02     0.374358974358974E+01    -0.168577045110052E+05    -0.608815312810087E+05    -0.422838855803103E+04     0.549368546367655E+05     0.000000000000000E+00    -0.164552564135443E+05    -0.612839793784696E+05
    -0.128000000000000E+02     0.354358974358974E+01    -0.170754641713372E+05    -0.629987589976197E+05    -0.383881855002235E+04     0.568233371369916E+05     0.000000000000000E+00    -0.167567812649702E+05    -0.633174419039866E+05
    -0.132000000000000E+02     0.334358974358974E+01    -0.172505472040001E+05    -0.651413965914785E+05    -0.345879881168045E+04     0.587634925744631E+05     0.000000000000000E+00    -0.170020335456806E+05    -0.653899102497980E+05
    -0.136000000000000E+02     0.314358974358974E+01    -0.173841267797394E+05    -0.673124681046451E+05    -0.309254734201213E+04     0.607593556090942E+05     0.000000000000000E+00    -0.171933045794094E+05    -0.675032903049751E+05
    -0.140000000000000E+02     0.294358974358974E+01    -0.174783329566378E+05    -0.695147630315689E+05    -0.274391405570673E+04     0.628122553459597E+05     0.000000000000000E+00    -0.173340447101876E+05    -0.696590512780191E+05
    -0.144000000000000E+02     0.274358974358974E+01    -0.175362973257589E+05    -0.717508395308534E+05    -0.241632212690907E+04     0.649228502128242E+05     0.000000000000000E+00    -0.174288158252053E+05    -0.718583210314070E+05
    -0.148000000000000E+02     0.254358974358974E+01    -0.175621976567916E+05    -0.740230276370207E+05    -0.211270933299231E+04     0.670911543107509E+05     0.000000000000000E+00    -0.174832525121416E+05    -0.741019727816707E+05
    -0.152000000000000E+02     0.234358974358974E+01    -0.175613025436937E+05    -0.763334324722768E+05    -0.183546939833079E+04     0.693165535923645E+05     0.000000000000000E+00    -0.175040361408018E+05    -0.763906988751687E+05
    -0.156000000000000E+02     0.214358974358974E+01    -0.175400160503366E+05    -0.786839374582748E+05    -0.158639333807294E+04     0.715978112970724E+05     0.000000000000000E+00    -0.174988843736246E+05    -0.787250691349868E+05
    -0.160000000000000E+02     0.194358974358974E+01    -0.175059223561484E+05    -0.810762075278816E+05    -0.136661080191414E+04     0.739330631448561E+05     0.000000000000000E+00    -0.174765570205057E+05    -0.811055728635243E+05
    -0.164000000000000E+02     0.174358974358974E+01    -0.174678304017588E+05    -0.835116923369407E+05    -0.117653141786961E+04     0.763198038267303E+05     0.000000000000000E+00    -0.174468778540514E+05    -0.835326448846481E+05
    -0.168000000000000E+02     0.154358974358974E+01    -0.174358185346428E+05    -0.859916294760380E+05    -0.101578613604723E+04     0.787548673117878E+05     0.000000000000000E+00    -0.174207710130379E+05    -0.860066769976428E+05
    -0.172000000000000E+02     0.134358974358974E+01    -0.174212791547645E+05    -0.885170476822658E+05    -0.883168572420508E+03     0.812344044129476E+05     0.000000000000000E+00    -0.174103099168017E+05    -0.885280169202286E+05
    -0.176000000000000E+02     0.114358974358974E+01    -0.174369633602215E+05    -0.910887700509881E+05    -0.776576352601350E+03     0.837538619241825E+05     0.000000000000000E+00    -0.174287761367454E+05    -0.910969572744641E+05
    -0.180000000000000E+02     0.943589743589743E+00    -0.174970255928886E+05    -0.937074172476047E+05    -0.692952455613017E+03     0.863079684809420E+05     0.000000000000000E+00    -0.174907253574175E+05    -0.937137174830759E+05
    -0.184000000000000E+02     0.743589743589743E+00    -0.176170682840622E+05    -0.963734107193160E+05    -0.628226557662929E+03     0.888907331335071E+05     0.000000000000000E+00    -0.176120573416288E+05    -0.963784216617494E+05
 zone I=   21 ,j=   21 ,f=point, T="    1"
    -0.104000000000000E+02     0.474358974358974E+01    -0.151490525806628E+05    -0.505538763694843E+05    -0.615348746023789E+04     0.461837753173673E+05     0.000000000000000E+00    -0.141100452437912E+05    -0.515928837063559E+05
    -0.108000000000000E+02     0.454358974358974E+01    -0.155674270788078E+05    -0.525978493206522E+05    -0.578821310420764E+04     0.478599580863776E+05     0.000000000000000E+00    -0.146837605571435E+05    -0.534815158423165E+05
    -0.112000000000000E+02     0.434358974358974E+01    -0.159500498080710E+05    -0.546484813128463E+05    -0.540793072599847E+04     0.495676481590232E+05     0.000000000000000E+00    -0.152085247834329E+05    -0.553900063374844E+05
    -0.116000000000000E+02     0.414358974358974E+01    -0.162939791871731E+05    -0.567100173026494E+05    -0.501781890279735E+04     0.513129954125564E+05     0.000000000000000E+00    -0.156803138562942E+05    -0.573236826335283E+05
    -0.120000000000000E+02     0.394358974358974E+01    -0.165970072939517E+05    -0.587864516402103E+05    -0.462298140860944E+04     0.531012641301242E+05     0.000000000000000E+00    -0.160963767108544E+05    -0.592870822233076E+05
    -0.124000000000000E+02     0.374358974358974E+01    -0.168577045110052E+05    -0.608815312810087E+05    -0.422838855803103E+04     0.549368546367655E+05     0.000000000000000E+00    -0.164552564135443E+05    -0.612839793784696E+05
    -0.128000000000000E+02     0.354358974358974E+01    -0.170754641713372E+05    -0.629987589976197E+05    -0.383881855002235E+04     0.568233371369916E+05     0.000000000000000E+00    -0.167567812649702E+05    -0.633174419039866E+05
    -0.132000000000000E+02     0.334358974358974E+01    -0.172505472040001E+05    -0.651413965914785E+05    -0.345879881168045E+04     0.587634925744631E+05     0.000000000000000E+00    -0.170020335456806E+05    -0.653899102497980E+05
    -0.136000000000000E+02     0.314358974358974E+01    -0.173841267797394E+05    -0.673124681046451E+05    -0.309254734201213E+04     0.607593556090942E+05     0.000000000000000E+00    -0.171933045794094E+05    -0.675032903049751E+05
    -0.140000000000000E+02     0.294358974358974E+01    -0.174783329566378E+05    -0.695147630315689E+05    -0.274391405570673E+04     0.628122553459597E+05     0.000000000000000E+00    -0.173340447101876E+05    -0.696590512780191E+05
    -0.144000000000000E+02     0.274358974358974E+01    -0.175362973257589E+05    -0.717508395308534E+05    -0.241632212690907E+04     0.649228502128242E+05     0.000000000000000E+00    -0.174288158252053E+05    -0.718583210314070E+05
    -0.148000000000000E+02     0.254358974358974E+01    -0.175621976567916E+05    -0.740230276370207E+05    -0.211270933299231E+04     0.670911543107509E+05     0.000000000000000E+00    -0.174832525121416E+05    -0.741019727816707E+05
    -0.152000000000000E+02     0.234358974358974E+01    -0.175613025436937E+05    -0.763334324722768E+05    -0.183546939833079E+04     0.693165535923645E+05     0.000000000000000E+00    -0.175040361408018E+05    -0.763906988751687E+05
    -0.156000000000000E+02     0.214358974358974E+01    -0.175400160503366E+05    -0.786839374582748E+05    -0.158639333807294E+04     0.715978112970724E+05     0.000000000000000E+00    -0.174988843736246E+05    -0.787250691349868E+05
    -0.160000000000000E+02     0.194358974358974E+01    -0.175059223561484E+05    -0.810762075278816E+05    -0.136661080191414E+04     0.739330631448561E+05     0.000000000000000E+00    -0.174765570205057E+05    -0.811055728635243E+05
    -0.164000000000000E+02     0.174358974358974E+01    -0.174678304017588E+05    -0.835116923369407E+05    -0.117653141786961E+04     0.763198038267303E+05     0.000000000000000E+00    -0.174468778540514E+05    -0.835326448846481E+05
    -0.168000000000000E+02     0.154358974358974E+01    -0.174358185346428E+05    -0.859916294760380E+05    -0.101578613604723E+04     0.787548673117878E+05     0.000000000000000E+00    -0.174207710130379E+05    -0.860066769976428E+05
    -0.172000000000000E+02     0.134358974358974E+01    -0.174212791547645E+05    -0.885170476822658E+05    -0.883168572420508E+03     0.812344044129476E+05     0.000000000000000E+00    -0.174103099168017E+05    -0.885280169202286E+05
    -0.176000000000000E+02     0.114358974358974E+01    -0.174369633602215E+05    -0.910887700509881E+05    -0.776576352601350E+03     0.837538619241825E+05     0.000000000000000E+00    -0.174287761367454E+05    -0.910969572744641E+05
    -0.180000000000000E+02     0.943589743589743E+00    -0.174970255928886E+05    -0.937074172476047E+05    -0.692952455613017E+03     0.863079684809420E+05     0.000000000000000E+00    -0.174907253574175E+05    -0.937137174830759E+05
    -0.184000000000000E+02     0.743589743589743E+00    -0.176170682840622E+05    -0.963734107193160E+05    -0.628226557662929E+03     0.888907331335071E+05     0.000000000000000E+00    -0.176120573416288E+05    -0.963784216617494E+05
    -0.105300000000000E+02     0.475641025641026E+01    -0.151306809046137E+05    -0.493181140888938E+05    -0.604037920740939E+04     0.449939526795981E+05     0.000000000000000E+00    -0.140948269584948E+05    -0.503539680350127E+05
    -0.109350000000000E+02     0.455391025641026E+01    -0.155437528216868E+05    -0.513830039787959E+05    -0.565854792163078E+04     0.466818394060118E+05     0.000000000000000E+00    -0.146715678047458E+05    -0.522551889957369E+05
    -0.113400000000000E+02     0.435141025641026E+01    -0.159191483199181E+05    -0.534569676510865E+05    -0.526254242721505E+04     0.484062014137121E+05     0.000000000000000E+00    -0.151953331161286E+05    -0.541807828548760E+05
    -0.117450000000000E+02     0.414891025641026E+01    -0.162539567846573E+05    -0.555443548904229E+05    -0.485780859112791E+04     0.501731585636609E+05     0.000000000000000E+00    -0.156622551327528E+05    -0.561360565423275E+05
    -0.121500000000000E+02     0.394641025641026E+01    -0.165460648347096E+05    -0.576492483043024E+05    -0.444970610697160E+04     0.519878788254101E+05     0.000000000000000E+00    -0.160698700176082E+05    -0.581254431214037E+05
    -0.125550000000000E+02     0.374391025641026E+01    -0.167942038289686E+05    -0.597754667406437E+05    -0.404344607994042E+04     0.538546070684839E+05     0.000000000000000E+00    -0.164171262925038E+05    -0.601525442771085E+05
    -0.129600000000000E+02     0.354141025641026E+01    -0.169979973730496E+05    -0.619265687053690E+05    -0.364402861177622E+04     0.557767066767973E+05     0.000000000000000E+00    -0.167043596933882E+05    -0.622202063850305E+05
    -0.133650000000000E+02     0.333891025641026E+01    -0.171580088259225E+05    -0.641058557799845E+05    -0.325618038572397E+04     0.577567078788381E+05     0.000000000000000E+00    -0.169332446998418E+05    -0.643306199060652E+05
    -0.137700000000000E+02     0.313641025641026E+01    -0.172757888065447E+05    -0.663163760391626E+05    -0.288429225148720E+04     0.597963571496120E+05     0.000000000000000E+00    -0.171067336906171E+05    -0.664854311550902E+05
    -0.141750000000000E+02     0.293391025641026E+01    -0.173539227004946E+05    -0.685609274683231E+05    -0.253235681018359E+04     0.618966628009472E+05     0.000000000000000E+00    -0.172289940141476E+05    -0.686858561546702E+05
    -0.145800000000000E+02     0.273141025641026E+01    -0.173960781666041E+05    -0.708420613812148E+05    -0.220390599930043E+04     0.640579328733662E+05     0.000000000000000E+00    -0.173053516039527E+05    -0.709327879438661E+05
    -0.149850000000000E+02     0.252891025641026E+01    -0.174070526435919E+05    -0.731620858374965E+05    -0.190194867765018E+04     0.662798025982195E+05     0.000000000000000E+00    -0.173422475691840E+05    -0.732268909119044E+05
    -0.153900000000000E+02     0.232641025641026E+01    -0.173928208566969E+05    -0.755230690603190E+05    -0.162890821032592E+04     0.685612499361103E+05     0.000000000000000E+00    -0.173472118689524E+05    -0.755686780480635E+05
    -0.157950000000000E+02     0.212391025641026E+01    -0.173605823243105E+05    -0.779268428539061E+05    -0.138656005365695E+04     0.709005989503960E+05     0.000000000000000E+00    -0.173288560429013E+05    -0.779585691353153E+05
    -0.162000000000000E+02     0.192141025641026E+01    -0.173188088646104E+05    -0.803750060211368E+05    -0.117596934016427E+04     0.732955119927662E+05     0.000000000000000E+00    -0.172968851948673E+05    -0.803969296908799E+05
    -0.166050000000000E+02     0.171891025641026E+01    -0.172772921021930E+05    -0.828689277811256E+05    -0.997428463516056E+03     0.757429728300082E+05     0.000000000000000E+00    -0.172621280712658E+05    -0.828840918120527E+05
    -0.170100000000000E+02     0.151641025641026E+01    -0.172471909747071E+05    -0.854097511868050E+05    -0.850394663483250E+03     0.782392639135873E+05     0.000000000000000E+00    -0.172365831196787E+05    -0.854203590418334E+05
    -0.174150000000000E+02     0.131391025641026E+01    -0.172410792394863E+05    -0.879983965425064E+05    -0.733427610895005E+03     0.807799419895721E+05     0.000000000000000E+00    -0.172334777885146E+05    -0.880059979934781E+05
    -0.178200000000000E+02     0.111141025641026E+01    -0.172729929801825E+05    -0.906355648215417E+05    -0.644126992594252E+03     0.833598171833631E+05     0.000000000000000E+00    -0.172673379493840E+05    -0.906412198523401E+05
    -0.182250000000000E+02     0.908910256410256E+00    -0.173584781133989E+05    -0.933217410837847E+05    -0.579070096393196E+03     0.859729416022551E+05     0.000000000000000E+00    -0.173540641022054E+05    -0.933261550949782E+05
    -0.186300000000000E+02     0.706410256410256E+00    -0.175146378953228E+05    -0.960571978932528E+05    -0.533749396028819E+03     0.886126144215450E+05     0.000000000000000E+00    -0.175110108775313E+05    -0.960608249110443E+05
    -0.106600000000000E+02     0.476923076923077E+01    -0.151072996626736E+05    -0.480768609845012E+05    -0.592049983799877E+04     0.438002337263460E+05     0.000000000000000E+00    -0.140763641872092E+05    -0.491077964599656E+05
    -0.110700000000000E+02     0.456423076923077E+01    -0.155146343901248E+05    -0.501634642660560E+05    -0.552208180485461E+04     0.455004327669495E+05     0.000000000000000E+00    -0.146558499285812E+05    -0.510222487275996E+05
    -0.114800000000000E+02     0.435923076923077E+01    -0.158823278986705E+05    -0.522616732849906E+05    -0.511041853088805E+04     0.472423849426033E+05     0.000000000000000E+00    -0.151780711369729E+05    -0.529659300466882E+05
    -0.118900000000000E+02     0.415423076923077E+01    -0.162075120458968E+05    -0.543759408803008E+05    -0.469123325831475E+04     0.490321393064097E+05     0.000000000000000E+00    -0.156393752194013E+05    -0.549440777067963E+05
    -0.123000000000000E+02     0.394923076923077E+01    -0.164881835431869E+05    -0.565104352787089E+05    -0.427015078147887E+04     0.508747248253189E+05     0.000000000000000E+00    -0.160376539013872E+05    -0.569609649205086E+05
    -0.127100000000000E+02     0.374423076923077E+01    -0.167232544681690E+05    -0.586690437284801E+05    -0.385263108271600E+04     0.527741876595411E+05     0.000000000000000E+00    -0.163723343498534E+05    -0.590199638467957E+05
    -0.131200000000000E+02     0.353923076923077E+01    -0.169126027771646E+05    -0.608553761332400E+05    -0.344390296821602E+04     0.547336417259376E+05     0.000000000000000E+00    -0.166443334279536E+05    -0.611236454824510E+05
    -0.135300000000000E+02     0.333423076923077E+01    -0.170571228176372E+05    -0.630727686857910E+05    -0.304889770388606E+04     0.567553253731452E+05     0.000000000000000E+00    -0.168559885718968E+05    -0.632739029315315E+05
    -0.139400000000000E+02     0.312923076923077E+01    -0.171587758406403E+05    -0.653242875019293E+05    -0.267218265121331E+04     0.588406577134659E+05     0.000000000000000E+00    -0.170109788810597E+05    -0.654720844615100E+05
    -0.143500000000000E+02     0.292423076923077E+01    -0.172206405132659E+05    -0.676127322542622E+05    -0.231789490312795E+04     0.609902891995863E+05     0.000000000000000E+00    -0.171142484717723E+05    -0.677191242957557E+05
    -0.147600000000000E+02     0.271923076923077E+01    -0.172469634310925E+05    -0.699406398060245E+05    -0.198967491986604E+04     0.632041423155794E+05     0.000000000000000E+00    -0.171719415636104E+05    -0.700156616735065E+05
    -0.151700000000000E+02     0.251423076923077E+01    -0.172432096306340E+05    -0.723102878448957E+05    -0.169060016483244E+04     0.654814396723883E+05     0.000000000000000E+00    -0.171913557791493E+05    -0.723621416963804E+05
    -0.155800000000000E+02     0.230923076923077E+01    -0.172161131017875E+05    -0.747236985168170E+05    -0.142311874046364E+04     0.678207182663578E+05     0.000000000000000E+00    -0.171809172543671E+05    -0.747588943642374E+05
    -0.159900000000000E+02     0.210423076923077E+01    -0.171737273002820E+05    -0.771826420598078E+05    -0.118898302409070E+04     0.702198301020529E+05     0.000000000000000E+00    -0.171501786975361E+05    -0.772061906625537E+05
    -0.164000000000000E+02     0.189923076923077E+01    -0.171254756601264E+05    -0.796886404377831E+05    -0.989183303802140E+03     0.726759307475839E+05     0.000000000000000E+00    -0.171098396364891E+05    -0.797042764614204E+05
    -0.168100000000000E+02     0.169423076923077E+01    -0.170822021060579E+05    -0.822429709743700E+05    -0.823881414306798E+03     0.751854586555868E+05     0.000000000000000E+00    -0.170717867577257E+05    -0.822533863227023E+05
    -0.172200000000000E+02     0.148923076923077E+01    -0.170562215659907E+05    -0.848466699867250E+05    -0.692344372796761E+03     0.777441092411891E+05     0.000000000000000E+00    -0.170491513849512E+05    -0.848537401677645E+05
    -0.176300000000000E+02     0.128423076923077E+01    -0.170613704834638E+05    -0.875005364193507E+05    -0.592878014810244E+03     0.803468087736974E+05     0.000000000000000E+00    -0.170563806537664E+05    -0.875055262490480E+05
    -0.180400000000000E+02     0.107923076923077E+01    -0.171130573300896E+05    -0.902051354779123E+05    -0.522760630094463E+03     0.829876941413518E+05     0.000000000000000E+00    -0.171093186937572E+05    -0.902088741142447E+05
    -0.184500000000000E+02     0.874230769230769E+00    -0.172283131180023E+05    -0.929608022630556E+05    -0.478176598468551E+03     0.856601055321099E+05     0.000000000000000E+00    -0.172252940208228E+05    -0.929638213602351E+05
    -0.188600000000000E+02     0.669230769230769E+00    -0.174258419123058E+05    -0.957676454042228E+05    -0.454150025686454E+03     0.883566000943414E+05     0.000000000000000E+00    -0.174232092780560E+05    -0.957702780384727E+05
    -0.107900000000000E+02     0.478205128205128E+01    -0.150786645577528E+05    -0.468303793661767E+05    -0.579379783893234E+04     0.426029958458982E+05     0.000000000000000E+00    -0.140544941005295E+05    -0.478545498234000E+05
    -0.112050000000000E+02     0.457455128205128E+01    -0.154798222966501E+05    -0.489395353998234E+05    -0.537878684198434E+04     0.443161568267270E+05     0.000000000000000E+00    -0.146364193859694E+05    -0.497829383105041E+05
    -0.116200000000000E+02     0.436705128205128E+01    -0.158393351134728E+05    -0.510629483108709E+05    -0.495155910739877E+04     0.460766740297076E+05     0.000000000000000E+00    -0.151565067263613E+05    -0.517457766979824E+05
    -0.120350000000000E+02     0.415955128205128E+01    -0.161543896052880E+05    -0.532051719369537E+05    -0.451812558072951E+04     0.478904784290582E+05     0.000000000000000E+00    -0.156113886886625E+05    -0.537481728535792E+05
    -0.124500000000000E+02     0.395205128205128E+01    -0.164231090716603E+05    -0.553704571705745E+05    -0.408438553474328E+04     0.497624114868572E+05     0.000000000000000E+00    -0.159993916795007E+05    -0.557941745627341E+05
    -0.128650000000000E+02     0.374455128205128E+01    -0.166446071831718E+05    -0.575627558199662E+05    -0.365605605878041E+04     0.516962724437827E+05     0.000000000000000E+00    -0.163205039805391E+05    -0.578868590225990E+05
    -0.132800000000000E+02     0.353705128205128E+01    -0.168190416499424E+05    -0.597857244699533E+05    -0.323860154811561E+04     0.536948791082531E+05     0.000000000000000E+00    -0.165763043036165E+05    -0.600284618162791E+05
    -0.136950000000000E+02     0.332955128205128E+01    -0.169476678901492E+05    -0.620427283428138E+05    -0.283716319331878E+04     0.557601337618445E+05     0.000000000000000E+00    -0.167698683214512E+05    -0.622205279115118E+05
    -0.141100000000000E+02     0.312205128205128E+01    -0.170328926985471E+05    -0.643368451591406E+05    -0.245648846961572E+04     0.578930868528949E+05     0.000000000000000E+00    -0.169056697160891E+05    -0.644640681415986E+05
    -0.145250000000000E+02     0.291455128205128E+01    -0.170783279149883E+05    -0.666708689987033E+05    -0.210086062624899E+04     0.600939925482557E+05     0.000000000000000E+00    -0.169894894927301E+05    -0.667597074209616E+05
    -0.149400000000000E+02     0.270705128205128E+01    -0.170888440929429E+05    -0.690473141613104E+05    -0.177402817583857E+04     0.623623518357874E+05     0.000000000000000E+00    -0.170283435499356E+05    -0.691078147043177E+05
    -0.153550000000000E+02     0.249955128205128E+01    -0.170706241680183E+05    -0.714684190276697E+05    -0.147913438374276E+04     0.646969405943745E+05     0.000000000000000E+00    -0.170304346101466E+05    -0.715086085855415E+05
    -0.157700000000000E+02     0.229205128205128E+01    -0.170312171264798E+05    -0.739361499202514E+05    -0.121864675741885E+04     0.670958217686431E+05     0.000000000000000E+00    -0.170051311727758E+05    -0.739622358739554E+05
    -0.161850000000000E+02     0.208455128205128E+01    -0.169795916737699E+05    -0.764522049641486E+05    -0.994286535783969E+03     0.695563424252833E+05     0.000000000000000E+00    -0.169629734440503E+05    -0.764688231938682E+05
    -0.166000000000000E+02     0.187705128205128E+01    -0.169261899030291E+05    -0.790180179479398E+05    -0.806958178575813E+03     0.720751179812594E+05     0.000000000000000E+00    -0.169157042791690E+05    -0.790285035717999E+05
    -0.170150000000000E+02     0.166955128205128E+01    -0.168829809636152E+05    -0.816347621845503E+05    -0.656678855713419E+03     0.746480072645846E+05     0.000000000000000E+00    -0.168763219533302E+05    -0.816414211948353E+05
    -0.174300000000000E+02     0.146205128205128E+01    -0.168635147296240E+05    -0.843033543721135E+05    -0.542507936657982E+03     0.772700833039512E+05     0.000000000000000E+00    -0.168591509022497E+05    -0.843077181994877E+05
    -0.178450000000000E+02     0.125455128205128E+01    -0.168829754684086E+05    -0.870244584548332E+05    -0.462476479773582E+03     0.799356058728675E+05     0.000000000000000E+00    -0.168799262714479E+05    -0.870275076517939E+05
    -0.182600000000000E+02     0.104705128205128E+01    -0.169582355090999E+05    -0.897984894838448E+05    -0.413516721687975E+03     0.826380028822766E+05     0.000000000000000E+00    -0.169558880355650E+05    -0.898008369573797E+05
    -0.186750000000000E+02     0.839551282051282E+00    -0.171079089111265E+05    -0.926256174780774E+05    -0.391391566653398E+03     0.853698687824343E+05     0.000000000000000E+00    -0.171058804697612E+05    -0.926276459194427E+05
    -0.190900000000000E+02     0.632051282051282E+00    -0.173524051327347E+05    -0.955057712851146E+05    -0.390624075907240E+03     0.881229892724232E+05     0.000000000000000E+00    -0.173504527746407E+05    -0.955077236432086E+05
    -0.109200000000000E+02     0.479487179487179E+01    -0.150445263684128E+05    -0.455789357864226E+05    -0.566022334107193E+04     0.414026333051670E+05     0.000000000000000E+00    -0.140290510800254E+05    -0.465944110748099E+05
    -0.113400000000000E+02     0.458487179487179E+01    -0.154390622393566E+05    -0.477115272888767E+05    -0.522863758791225E+04     0.431294469335907E+05     0.000000000000000E+00    -0.146130823164773E+05    -0.485375072117561E+05
    -0.117600000000000E+02     0.437487179487179E+01    -0.157899119231860E+05    -0.498611479384740E+05    -0.478596762186811E+04     0.449095615229054E+05     0.000000000000000E+00    -0.151303959392510E+05    -0.505206639224090E+05
    -0.121800000000000E+02     0.416487179487179E+01    -0.160943298112784E+05    -0.520324502227321E+05    -0.433852266503010E+04     0.467487352794347E+05     0.000000000000000E+00    -0.155779929806412E+05    -0.525487870533693E+05
    -0.126000000000000E+02     0.395487179487179E+01    -0.163505832621756E+05    -0.542297644192320E+05    -0.389248604386229E+04     0.486515671521371E+05     0.000000000000000E+00    -0.159547261116250E+05    -0.546256215697825E+05
    -0.130200000000000E+02     0.374487179487179E+01    -0.165580095819955E+05    -0.564571026947347E+05    -0.345384032734104E+04     0.506215558594406E+05     0.000000000000000E+00    -0.162612374405987E+05    -0.567538748361315E+05
    -0.134400000000000E+02     0.353487179487179E+01    -0.167170730048451E+05    -0.587181632042969E+05    -0.302829246509378E+04     0.526611722685847E+05     0.000000000000000E+00    -0.164998555048112E+05    -0.589353807043308E+05
    -0.138600000000000E+02     0.332487179487179E+01    -0.168294216732324E+05    -0.610163341903870E+05    -0.262119892553783E+04     0.547719353890775E+05     0.000000000000000E+00    -0.166744736461781E+05    -0.611712822174412E+05
    -0.142800000000000E+02     0.311487179487179E+01    -0.168979446184788E+05    -0.633546980820013E+05    -0.223749083401915E+04     0.569544837355021E+05     0.000000000000000E+00    -0.167904294490303E+05    -0.634622132514498E+05
    -0.147000000000000E+02     0.290487179487179E+01    -0.169268287411314E+05    -0.657360355937799E+05    -0.188159911095117E+04     0.592086356526179E+05     0.000000000000000E+00    -0.168544004109192E+05    -0.658084639239920E+05
    -0.151200000000000E+02     0.269487179487179E+01    -0.169216157913754E+05    -0.681628298251229E+05    -0.155737960995355E+04     0.615334342203850E+05     0.000000000000000E+00    -0.168743258324044E+05    -0.682101197840939E+05
    -0.155400000000000E+02     0.248487179487179E+01    -0.168892593494465E+05    -0.706372703593059E+05    -0.126803825599101E+04     0.639271744206423E+05     0.000000000000000E+00    -0.168593600653377E+05    -0.706671696434147E+05
    -0.159600000000000E+02     0.227487179487179E+01    -0.168381818060430E+05    -0.731612573625968E+05    -0.101605618351212E+04     0.663874122351785E+05     0.000000000000000E+00    -0.168198583319047E+05    -0.731795808367351E+05
    -0.163800000000000E+02     0.206487179487179E+01    -0.167783313427382E+05    -0.757364056833709E+05    -0.803114874588020E+03     0.689109571818921E+05     0.000000000000000E+00    -0.167673935047458E+05    -0.757473435213633E+05
    -0.168000000000000E+02     0.185487179487179E+01    -0.167212389123930E+05    -0.783640489512278E+05    -0.630021297051326E+03     0.714938514464288E+05     0.000000000000000E+00    -0.167148004424304E+05    -0.783704874211904E+05
    -0.172200000000000E+02     0.164487179487179E+01    -0.166800752195676E+05    -0.810452436761068E+05    -0.496633042634847E+03     0.741313402299016E+05     0.000000000000000E+00    -0.166762434934519E+05    -0.810490754022224E+05
    -0.176400000000000E+02     0.143487179487179E+01    -0.166697077009344E+05    -0.837807733474033E+05    -0.401783465110411E+03     0.768178392349239E+05     0.000000000000000E+00    -0.166673023723098E+05    -0.837831786760280E+05
    -0.180600000000000E+02     0.122487179487179E+01    -0.167067575056903E+05    -0.865711525330845E+05    -0.343206818427599E+03     0.795469063990725E+05     0.000000000000000E+00    -0.167050715528135E+05    -0.865728384859612E+05
    -0.184800000000000E+02     0.101487179487179E+01    -0.168096564759685E+05    -0.894166309788056E+05    -0.317463394852657E+03     0.823112261205543E+05     0.000000000000000E+00    -0.168082684401617E+05    -0.894180190146124E+05
    -0.189000000000000E+02     0.804871794871794E+00    -0.169987041272513E+05    -0.923171977070259E+05    -0.319864663107158E+03     0.851026153829209E+05     0.000000000000000E+00    -0.169973457416460E+05    -0.923185560926312E+05
    -0.193200000000000E+02     0.594871794871795E+00    -0.172961246287824E+05    -0.952725851161245E+05    -0.344398406506857E+03     0.879120624646925E+05     0.000000000000000E+00    -0.172946035550123E+05    -0.952741061898947E+05
    -0.110500000000000E+02     0.480769230769231E+01    -0.150046309107083E+05    -0.443228010567643E+05    -0.551972814663959E+04     0.401995593002834E+05     0.000000000000000E+00    -0.139998667125298E+05    -0.453275652549428E+05
    -0.114750000000000E+02     0.459519230769231E+01    -0.153920950668585E+05    -0.464797545489932E+05    -0.507161110096231E+04     0.419407569108823E+05     0.000000000000000E+00    -0.145856378936636E+05    -0.472862117221881E+05
    -0.119000000000000E+02     0.438269230769231E+01    -0.157337956461022E+05    -0.486566325048248E+05    -0.461365098104909E+04     0.437415594784785E+05     0.000000000000000E+00    -0.150994815061510E+05    -0.492909466447759E+05
    -0.123250000000000E+02     0.417019230769231E+01    -0.160270687028821E+05    -0.508581834085871E+05    -0.415246610631489E+04     0.456074892482305E+05     0.000000000000000E+00    -0.155388663200090E+05    -0.513463857914602E+05
    -0.127500000000000E+02     0.395769230769231E+01    -0.162703441323671E+05    -0.530888133028602E+05    -0.369453363081348E+04     0.475428403686897E+05     0.000000000000000E+00    -0.159032772510348E+05    -0.534558801841924E+05
    -0.131750000000000E+02     0.374519230769231E+01    -0.164632061242773E+05    -0.553525901374663E+05    -0.324611011794568E+04     0.495507515842546E+05     0.000000000000000E+00    -0.161941141681429E+05    -0.556216820936007E+05
    -0.136000000000000E+02     0.353269230769231E+01    -0.166064536167096E+05    -0.576532481184606E+05    -0.281315211516770E+04     0.516332916253657E+05     0.000000000000000E+00    -0.164145507360322E+05    -0.578451509991380E+05
    -0.140250000000000E+02     0.332019230769231E+01    -0.167021607499621E+05    -0.599941920571199E+05    -0.240123672869940E+04     0.537915460642638E+05     0.000000000000000E+00    -0.165693809478176E+05    -0.601269718592644E+05
    -0.144500000000000E+02     0.310769230769231E+01    -0.167537373203602E+05    -0.623785017189341E+05    -0.201548219823258E+04     0.560256964627501E+05     0.000000000000000E+00    -0.166648761014889E+05    -0.624673629378054E+05
    -0.148750000000000E+02     0.289519230769231E+01    -0.167659892340811E+05    -0.648089361725951E+05    -0.166046847163929E+04     0.583350850116358E+05     0.000000000000000E+00    -0.167086682322786E+05    -0.648662571743976E+05
    -0.153000000000000E+02     0.268269230769231E+01    -0.167451789609794E+05    -0.672879381389870E+05    -0.134015777968012E+04     0.607182603505900E+05     0.000000000000000E+00    -0.167096691874804E+05    -0.673234479124859E+05
    -0.157250000000000E+02     0.247019230769231E+01    -0.166990859884118E+05    -0.698176383401766E+05    -0.105781521071245E+04     0.631730026922709E+05     0.000000000000000E+00    -0.166780287576793E+05    -0.698386955709091E+05
    -0.161500000000000E+02     0.225769230769231E+01    -0.166370672750631E+05    -0.723998598484027E+05    -0.815929285398822E+03     0.656963286369690E+05     0.000000000000000E+00    -0.166251310341718E+05    -0.724117960892940E+05
    -0.165750000000000E+02     0.204519230769231E+01    -0.165701177047703E+05    -0.750361224350666E+05    -0.616132531415135E+03     0.682844780888779E+05     0.000000000000000E+00    -0.165636254337757E+05    -0.750426147060613E+05
    -0.170000000000000E+02     0.183269230769231E+01    -0.165109305403490E+05    -0.777276469197220E+05    -0.459122058159026E+03     0.709328874558323E+05     0.000000000000000E+00    -0.165074873434389E+05    -0.777310901166321E+05
    -0.174250000000000E+02     0.162019230769231E+01    -0.164739578774174E+05    -0.804753595190648E+05    -0.344580131458079E+03     0.736361548519716E+05     0.000000000000000E+00    -0.164721027301490E+05    -0.804772146663331E+05
    -0.178500000000000E+02     0.140769230769231E+01    -0.164754710982223E+05    -0.832798961959230E+05    -0.271094748278196E+03     0.763880043760853E+05     0.000000000000000E+00    -0.164743710041457E+05    -0.832809962899996E+05
    -0.182750000000000E+02     0.119519230769231E+01    -0.165336213254640E+05    -0.861416070082475E+05    -0.236080211431836E+03     0.791812577764119E+05     0.000000000000000E+00    -0.165328206526014E+05    -0.861424076811101E+05
    -0.187000000000000E+02     0.982692307692307E+00    -0.166684998761214E+05    -0.890605604581010E+05    -0.235697704286286E+03     0.820078230200727E+05     0.000000000000000E+00    -0.166677324878405E+05    -0.890613278463819E+05
    -0.191250000000000E+02     0.770192307692307E+00    -0.169021987152776E+05    -0.920365478406484E+05    -0.264775865472035E+03     0.848587105602054E+05     0.000000000000000E+00    -0.169012656481899E+05    -0.920374809077361E+05
    -0.195500000000000E+02     0.557692307692307E+00    -0.172588709099443E+05    -0.950690875931475E+05    -0.316731363590992E+03     0.877240895470190E+05     0.000000000000000E+00    -0.172575816564402E+05    -0.950703768466515E+05
    -0.111800000000000E+02     0.482051282051282E+01    -0.149587190000296E+05    -0.430622502641440E+05    -0.537226575664230E+04     0.389942084007781E+05     0.000000000000000E+00    -0.139667697737729E+05    -0.440541994904007E+05
    -0.116100000000000E+02     0.460551282051282E+01    -0.153386567432450E+05    -0.452445365185602E+05    -0.490768697953493E+04     0.407505611589375E+05     0.000000000000000E+00    -0.145538775212921E+05    -0.460293157405131E+05
    -0.120400000000000E+02     0.439051282051282E+01    -0.156707189296597E+05    -0.474497674880714E+05    -0.443461958021940E+04     0.425732010697452E+05     0.000000000000000E+00    -0.150634910242463E+05    -0.480569953934847E+05
    -0.124700000000000E+02     0.417551282051282E+01    -0.159523379861936E+05    -0.496827846849918E+05    -0.396000204627702E+04     0.444673414598882E+05     0.000000000000000E+00    -0.154936652717266E+05    -0.501414573994587E+05
    -0.129000000000000E+02     0.396051282051282E+01    -0.161821258612758E+05    -0.519480659451423E+05    -0.349061533284931E+04     0.464369012495736E+05     0.000000000000000E+00    -0.158446400109267E+05    -0.522855517954914E+05
    -0.133300000000000E+02     0.374551282051282E+01    -0.163599381194399E+05    -0.542497300387540E+05    -0.303299865403822E+04     0.484845934357034E+05     0.000000000000000E+00    -0.161186889801557E+05    -0.544909791780382E+05
    -0.137600000000000E+02     0.353051282051282E+01    -0.164869380359202E+05    -0.565915412813710E+05    -0.259336527430632E+04     0.506120249177618E+05     0.000000000000000E+00    -0.163199334436753E+05    -0.567585458736159E+05
    -0.141900000000000E+02     0.331551282051282E+01    -0.165656606912476E+05    -0.589769141447550E+05    -0.217751829987689E+04     0.528197948280320E+05     0.000000000000000E+00    -0.164541536796041E+05    -0.590884211563985E+05
    -0.146200000000000E+02     0.310051282051282E+01    -0.166000770658452E+05    -0.614089178677883E+05    -0.179076647013419E+04     0.551075813005887E+05     0.000000000000000E+00    -0.165286237784810E+05    -0.614803711551526E+05
    -0.150500000000000E+02     0.288551282051282E+01    -0.165956581346246E+05    -0.638902810673767E+05    -0.143783994902359E+04     0.574742096268186E+05     0.000000000000000E+00    -0.165519855921671E+05    -0.639339536098342E+05
    -0.154800000000000E+02     0.267051282051282E+01    -0.165594389615812E+05    -0.664233963493545E+05    -0.112280611645174E+04     0.599176977575336E+05     0.000000000000000E+00    -0.165341691058468E+05    -0.664486662050889E+05
    -0.159100000000000E+02     0.245551282051282E+01    -0.165000827943903E+05    -0.690103249193868E+05    -0.848985359686748E+03     0.624352779387287E+05     0.000000000000000E+00    -0.164863599891542E+05    -0.690240477246229E+05
    -0.163400000000000E+02     0.224051282051282E+01    -0.164279451590032E+05    -0.716528011938734E+05    -0.618866864758401E+03     0.650233957984581E+05     0.000000000000000E+00    -0.164210108156898E+05    -0.716597355371868E+05
    -0.167700000000000E+02     0.202551282051282E+01    -0.163551379542426E+05    -0.743522374108525E+05    -0.434024407858253E+03     0.676776903935177E+05     0.000000000000000E+00    -0.163518900911639E+05    -0.743554852739313E+05
    -0.172000000000000E+02     0.181051282051282E+01    -0.162955935463990E+05    -0.771097282409041E+05    -0.295032146739880E+03     0.703929605886220E+05     0.000000000000000E+00    -0.162941622686296E+05    -0.771111595186735E+05
    -0.176300000000000E+02     0.159551282051282E+01    -0.162651288638259E+05    -0.799260553980534E+05    -0.201380412118997E+03     0.731631247284730E+05     0.000000000000000E+00    -0.162644918378385E+05    -0.799266924240408E+05
    -0.180600000000000E+02     0.138051282051282E+01    -0.162815094915362E+05    -0.828016922506747E+05    -0.151391499073679E+03     0.759811819515976E+05     0.000000000000000E+00    -0.162811649454702E+05    -0.828020367967407E+05
    -0.184900000000000E+02     0.116551282051282E+01    -0.163645137657978E+05    -0.857368084323944E+05    -0.142135458444509E+03     0.788391847789045E+05     0.000000000000000E+00    -0.163642225486219E+05    -0.857370996495703E+05
    -0.189200000000000E+02     0.950512820512820E+00    -0.165359968687295E+05    -0.887312744529952E+05    -0.169345888234769E+03     0.817282338979123E+05     0.000000000000000E+00    -0.165355996423037E+05    -0.887316716794209E+05
    -0.193500000000000E+02     0.735512820512820E+00    -0.168199549228970E+05    -0.917846663093189E+05    -0.227335725010576E+03     0.846385074760952E+05     0.000000000000000E+00    -0.168192655177671E+05    -0.917853557144487E+05
    -0.197800000000000E+02     0.520512820512820E+00    -0.172425890859084E+05    -0.948962700961704E+05    -0.308913035301135E+03     0.875593390066834E+05     0.000000000000000E+00    -0.172413602226783E+05    -0.948974989594005E+05
    -0.113100000000000E+02     0.483333333333333E+01    -0.149065264129444E+05    -0.417975627873123E+05    -0.521779139829676E+04     0.377870394738959E+05     0.000000000000000E+00    -0.139295861967203E+05    -0.427745030035363E+05
    -0.117450000000000E+02     0.461583333333333E+01    -0.152784783130349E+05    -0.440061972741864E+05    -0.473684739875162E+04     0.395593571388727E+05     0.000000000000000E+00    -0.145175838300981E+05    -0.447670917571231E+05
    -0.121800000000000E+02     0.439833333333333E+01    -0.156004097201580E+05    -0.462409235213291E+05    -0.424888735007394E+04     0.414050428077528E+05     0.000000000000000E+00    -0.150221347635701E+05    -0.468191984779170E+05
    -0.126150000000000E+02     0.418083333333333E+01    -0.158698650109035E+05    -0.485066727728616E+05    -0.376118123135855E+04     0.433289167033952E+05     0.000000000000000E+00    -0.154420218652239E+05    -0.489345159185413E+05
    -0.130500000000000E+02     0.396333333333333E+01    -0.160856587751684E+05    -0.508079903219250E+05    -0.328082397289180E+04     0.453344429902556E+05     0.000000000000000E+00    -0.157783814096670E+05    -0.511152676874263E+05
    -0.134850000000000E+02     0.374583333333333E+01    -0.162479437248569E+05    -0.531490403959666E+05    -0.281464623651432E+04     0.474238363402262E+05     0.000000000000000E+00    -0.160344901497987E+05    -0.533624939710248E+05
    -0.139200000000000E+02     0.352833333333333E+01    -0.163582786025817E+05    -0.555336110420267E+05    -0.236912519598380E+04     0.495981775426945E+05     0.000000000000000E+00    -0.162155261209816E+05    -0.556763635236269E+05
    -0.143550000000000E+02     0.331083333333333E+01    -0.164196960903641E+05    -0.579651190120250E+05    -0.195029531733775E+04     0.518575236511867E+05     0.000000000000000E+00    -0.163283429122095E+05    -0.580564721901796E+05
    -0.147900000000000E+02     0.309333333333333E+01    -0.164367707183345E+05    -0.604466146480473E+05    -0.156365913925629E+04     0.542010018182182E+05     0.000000000000000E+00    -0.163812842422033E+05    -0.605021011241786E+05
    -0.152250000000000E+02     0.287583333333333E+01    -0.164156867734335E+05    -0.629807867676319E+05    -0.121409805342485E+04     0.566268797307563E+05     0.000000000000000E+00    -0.163840529235533E+05    -0.630124206175121E+05
    -0.156600000000000E+02     0.265833333333333E+01    -0.163643062081117E+05    -0.655699675490561E+05    -0.905783084897001E+03     0.591326091426640E+05     0.000000000000000E+00    -0.163476381022722E+05    -0.655866356548957E+05
    -0.160950000000000E+02     0.244083333333333E+01    -0.162922365490310E+05    -0.682161374166232E+05    -0.642085672457195E+03     0.617148422228616E+05     0.000000000000000E+00    -0.162842977967397E+05    -0.682240761689146E+05
    -0.165300000000000E+02     0.222333333333333E+01    -0.162108988057648E+05    -0.709209299259484E+05    -0.425488448983526E+03     0.643694232122084E+05     0.000000000000000E+00    -0.162075899158271E+05    -0.709242388158861E+05
    -0.169650000000000E+02     0.200583333333333E+01    -0.161335953794986E+05    -0.736856366492457E+05    -0.257496021810507E+03     0.670913602030702E+05     0.000000000000000E+00    -0.161324433287188E+05    -0.736867887000256E+05
    -0.174000000000000E+02     0.178833333333333E+01    -0.160755779717306E+05    -0.765112120606147E+05    -0.138545753091808E+03     0.698747837756556E+05     0.000000000000000E+00    -0.160752603639961E+05    -0.765115296683492E+05
    -0.178350000000000E+02     0.157083333333333E+01    -0.160541154929722E+05    -0.793982784213266E+05    -0.679185401630911E+02     0.727129008333276E+05     0.000000000000000E+00    -0.160540426698015E+05    -0.793983512444974E+05
    -0.182700000000000E+02     0.135333333333333E+01    -0.160885619714489E+05    -0.823471306651112E+05    -0.436495959046661E+02     0.755979533854659E+05     0.000000000000000E+00    -0.160885332161281E+05    -0.823471594204320E+05
    -0.187050000000000E+02     0.113583333333333E+01    -0.162004244618002E+05    -0.853577412834431E+05    -0.624392291043534E+02     0.785211933546185E+05     0.000000000000000E+00    -0.162003680880956E+05    -0.853577976571478E+05
    -0.191400000000000E+02     0.918333333333333E+00    -0.164134309537810E+05    -0.884297652108289E+05    -0.119563624820198E+03     0.814728858685575E+05     0.000000000000000E+00    -0.164132324513007E+05    -0.884299637133092E+05
    -0.195750000000000E+02     0.700833333333333E+00    -0.167535982809615E+05    -0.915625447100926E+05    -0.208785624743255E+03     0.844423550820521E+05     0.000000000000000E+00    -0.167530155819710E+05    -0.915631274090830E+05
    -0.200100000000000E+02     0.483333333333333E+00    -0.172493000294280E+05    -0.947551142576635E+05    -0.322265507560353E+03     0.874180885143745E+05     0.000000000000000E+00    -0.172479600878642E+05    -0.947564541992273E+05
    -0.114400000000000E+02     0.484615384615385E+01    -0.148477838490399E+05    -0.405290223132211E+05    -0.505626205245403E+04     0.365785391972263E+05     0.000000000000000E+00    -0.138881390181996E+05    -0.414886671440614E+05
    -0.118800000000000E+02     0.462615384615385E+01    -0.152112858661312E+05    -0.427650656463124E+05    -0.455907714709966E+04     0.383676683172729E+05     0.000000000000000E+00    -0.144765294169230E+05    -0.434998220955207E+05
    -0.123200000000000E+02     0.440615384615385E+01    -0.155225912324727E+05    -0.450304764065256E+05    -0.405647180361729E+04     0.402376671315289E+05     0.000000000000000E+00    -0.149751029924551E+05    -0.455779646465433E+05
    -0.127600000000000E+02     0.418615384615385E+01    -0.157793727468125E+05    -0.473302719344759E+05    -0.355605907090476E+04     0.421928656405260E+05     0.000000000000000E+00    -0.153835402021343E+05    -0.477261044791540E+05
    -0.132000000000000E+02     0.396615384615385E+01    -0.159806693333556E+05    -0.496690602678756E+05    -0.306525822992726E+04     0.442361835610272E+05     0.000000000000000E+00    -0.157040374562551E+05    -0.499456921449761E+05
    -0.136400000000000E+02     0.374615384615385E+01    -0.161269579440198E+05    -0.520510453141129E+05    -0.259120032727703E+04     0.463692573749601E+05     0.000000000000000E+00    -0.159410173751719E+05    -0.522369858829608E+05
    -0.140800000000000E+02     0.352615384615385E+01    -0.162202254606924E+05    -0.544800320228317E+05    -0.214063370873296E+04     0.485925728760402E+05     0.000000000000000E+00    -0.161008297358750E+05    -0.545994277476490E+05
    -0.145200000000000E+02     0.330615384615385E+01    -0.162640405974858E+05    -0.569594315585096E+05    -0.171982955282026E+04     0.509055870589874E+05     0.000000000000000E+00    -0.161914881593656E+05    -0.570319839966298E+05
    -0.149600000000000E+02     0.308615384615385E+01    -0.162636258029938E+05    -0.594922664730380E+05    -0.133448740437017E+04     0.533068279319503E+05     0.000000000000000E+00    -0.162224687667509E+05    -0.595334235092810E+05
    -0.154000000000000E+02     0.286615384615385E+01    -0.162259291625481E+05    -0.620811758783009E+05    -0.989640708079488E+03     0.557939654414778E+05     0.000000000000000E+00    -0.162045808316597E+05    -0.621025242091892E+05
    -0.158400000000000E+02     0.264615384615385E+01    -0.161596963004741E+05    -0.647284206187535E+05    -0.689562342070323E+03     0.583638508820676E+05     0.000000000000000E+00    -0.161499080999108E+05    -0.647382088193168E+05
    -0.162800000000000E+02     0.242615384615385E+01    -0.160755422823471E+05    -0.674358884440020E+05    -0.437670151449710E+03     0.610125257579018E+05     0.000000000000000E+00    -0.160718129217089E+05    -0.674396178046402E+05
    -0.167200000000000E+02     0.220615384615385E+01    -0.159860235172487E+05    -0.702050991813825E+05    -0.236432481869256E+03     0.637352040349199E+05     0.000000000000000E+00    -0.159849925285264E+05    -0.702061301701048E+05
    -0.171600000000000E+02     0.198615384615385E+01    -0.159057096600228E+05    -0.730372099085397E+05    -0.872737130848085E+02     0.665262341180729E+05     0.000000000000000E+00    -0.159055763415699E+05    -0.730373432269925E+05
    -0.176000000000000E+02     0.176615384615385E+01    -0.158512555135317E+05    -0.759330201260064E+05     0.952020748392985E+01     0.693790488172283E+05     0.000000000000000E+00    -0.158512540050149E+05    -0.759330216345232E+05
    -0.180400000000000E+02     0.154615384615385E+01    -0.158414729309124E+05    -0.788929769297829E+05     0.548962311936926E+02     0.722861131600007E+05     0.000000000000000E+00    -0.158414251351625E+05    -0.788930247255328E+05
    -0.184800000000000E+02     0.132615384615385E+01    -0.158974027178329E+05    -0.819171801839151E+05     0.511286746180407E+02     0.752388813180266E+05     0.000000000000000E+00    -0.158973631215195E+05    -0.819172197802285E+05
    -0.189200000000000E+02     0.110615384615385E+01    -0.160423865347479E+05    -0.850053876930747E+05     0.191368598773932E+01     0.782277752889495E+05     0.000000000000000E+00    -0.160423864816441E+05    -0.850053877461784E+05
    -0.193600000000000E+02     0.886153846153845E+00    -0.163021387991554E+05    -0.881570203751374E+05    -0.875362883690199E+02     0.812421994801914E+05     0.000000000000000E+00    -0.163020321593525E+05    -0.881571270149403E+05
    -0.198000000000000E+02     0.666153846153845E+00    -0.167048185878528E+05    -0.913711674337627E+05    -0.210398037586068E+03     0.842706071422480E+05     0.000000000000000E+00    -0.167042257239534E+05    -0.913717602976621E+05
    -0.202400000000000E+02     0.446153846153845E+00    -0.172811015391929E+05    -0.946465915309726E+05    -0.358143119819096E+03     0.873006368804732E+05     0.000000000000000E+00    -0.172794436456583E+05    -0.946482494245073E+05
    -0.115700000000000E+02     0.485897435897436E+01    -0.147822168927654E+05    -0.392569168534160E+05    -0.488763648102432E+04     0.353692262955277E+05     0.000000000000000E+00    -0.138422482948819E+05    -0.401968854512996E+05
    -0.120150000000000E+02     0.463647435897436E+01    -0.151368005027762E+05    -0.415214752348227E+05    -0.437436366307686E+04     0.371760476691230E+05     0.000000000000000E+00    -0.144304752483953E+05    -0.422278004892036E+05
    -0.124600000000000E+02     0.441397435897436E+01    -0.154369819197707E+05    -0.438188071282454E+05    -0.385739408305633E+04     0.390716854369638E+05     0.000000000000000E+00    -0.149220626994189E+05    -0.443337263485972E+05
    -0.129050000000000E+02     0.419147435897436E+01    -0.156805797603465E+05    -0.461540119843989E+05    -0.334469569531834E+04     0.410598673351256E+05     0.000000000000000E+00    -0.153177924452517E+05    -0.465167992994937E+05
    -0.133500000000000E+02     0.396897435897436E+01    -0.158668801140110E+05    -0.485317554831416E+05    -0.284402270940102E+04     0.431428675955725E+05     0.000000000000000E+00    -0.156211096356959E+05    -0.487775259614568E+05
    -0.137950000000000E+02     0.374647435897436E+01    -0.159967126247035E+05    -0.509562750067061E+05    -0.236281563279253E+04     0.453216568848986E+05     0.000000000000000E+00    -0.158377396590232E+05    -0.511152479723863E+05
    -0.142400000000000E+02     0.352397435897436E+01    -0.160725265723165E+05    -0.534313851129314E+05    -0.190810131369867E+04     0.475960525711005E+05     0.000000000000000E+00    -0.159753233307022E+05    -0.535285883545457E+05
    -0.146850000000000E+02     0.330147435897436E+01    -0.160984669542177E+05    -0.559604830084938E+05    -0.148639298381031E+04     0.499648516726771E+05     0.000000000000000E+00    -0.160431185079972E+05    -0.560158314547143E+05
    -0.151300000000000E+02     0.307897435897436E+01    -0.160804505667718E+05    -0.585465540221388E+05    -0.110359030107106E+04     0.524259348523956E+05     0.000000000000000E+00    -0.160517902932287E+05    -0.585752142956819E+05
    -0.155750000000000E+02     0.285647435897436E+01    -0.160262420868619E+05    -0.611921770779120E+05    -0.764879392444687E+03     0.549763353520719E+05     0.000000000000000E+00    -0.160132926638610E+05    -0.612051265009129E+05
    -0.160200000000000E+02     0.263397435897436E+01    -0.159455301534116E+05    -0.638995301683912E+05    -0.474632896682749E+03     0.576122715372812E+05     0.000000000000000E+00    -0.159408328534592E+05    -0.639042274683436E+05
    -0.164650000000000E+02     0.241147435897436E+01    -0.158500034489064E+05    -0.666703958279173E+05    -0.236310007092058E+03     0.603291456315058E+05     0.000000000000000E+00    -0.158489046535315E+05    -0.666714946232923E+05
    -0.169100000000000E+02     0.218897435897436E+01    -0.157534267809158E+05    -0.695061666058260E+05    -0.523565143022813E+02     0.631215143096652E+05     0.000000000000000E+00    -0.157533757844085E+05    -0.695062176023333E+05
    -0.173550000000000E+02     0.196647435897436E+01    -0.156717171636147E+05    -0.724078505396789E+05     0.758951509665500E+02     0.659830392204808E+05     0.000000000000000E+00    -0.156716156398891E+05    -0.724079520634045E+05
    -0.178000000000000E+02     0.174397435897436E+01    -0.156230198993051E+05    -0.753760766284958E+05     0.148325875136507E+03     0.689064273872629E+05     0.000000000000000E+00    -0.156226517101132E+05    -0.753764448176878E+05
    -0.182450000000000E+02     0.152147435897436E+01    -0.156277846599383E+05    -0.784111003059852E+05     0.166129819004199E+03     0.718833729828547E+05     0.000000000000000E+00    -0.156273450698459E+05    -0.784115398960775E+05
    -0.186900000000000E+02     0.129897435897436E+01    -0.157088415686360E+05    -0.815128089137759E+05     0.131914374973252E+03     0.749045133727482E+05     0.000000000000000E+00    -0.157085771266411E+05    -0.815130733557708E+05
    -0.191350000000000E+02     0.107647435897436E+01    -0.158914772812126E+05    -0.846807271746491E+05     0.498001242867925E+02     0.779594137555644E+05     0.000000000000000E+00    -0.158914412283252E+05    -0.846807632275365E+05
    -0.195800000000000E+02     0.853974358974359E+00    -0.162035110676964E+05    -0.879140226657689E+05    -0.744792057401670E+02     0.810365963894341E+05     0.000000000000000E+00    -0.162034337129826E+05    -0.879141000204827E+05
    -0.200250000000000E+02     0.631474358974359E+00    -0.166753708938519E+05    -0.912115112919147E+05    -0.233476784488175E+03     0.841236324717844E+05     0.000000000000000E+00    -0.166746395590423E+05    -0.912122426267243E+05
    -0.204700000000000E+02     0.408974358974358E+00    -0.173401695027009E+05    -0.945716627587119E+05    -0.417932720800962E+03     0.872073174465248E+05     0.000000000000000E+00    -0.173379079557962E+05    -0.945739243056166E+05
    -0.117000000000000E+02     0.487179487179487E+01    -0.147095459752739E+05    -0.379815387604289E+05    -0.471187525440164E+04     0.341596566733275E+05     0.000000000000000E+00    -0.137917309760421E+05    -0.388993537596606E+05
    -0.121500000000000E+02     0.464679487179487E+01    -0.150547382985055E+05    -0.402757644246560E+05    -0.418269707183616E+04     0.359850818593714E+05     0.000000000000000E+00    -0.143791686240415E+05    -0.409513340991200E+05
    -0.126000000000000E+02     0.442179487179487E+01    -0.153432954432249E+05    -0.426063018675735E+05    -0.365167900669269E+04     0.379077416274729E+05     0.000000000000000E+00    -0.148626535529905E+05    -0.430869437578079E+05
    -0.130500000000000E+02     0.419679487179487E+01    -0.155732001910713E+05    -0.449783283004003E+05    -0.312715601421366E+04     0.399306321540194E+05     0.000000000000000E+00    -0.152443140655721E+05    -0.453072144258996E+05
    -0.135000000000000E+02     0.397179487179487E+01    -0.157440097999901E+05    -0.473965615400083E+05    -0.261722801361211E+04     0.420552684981556E+05     0.000000000000000E+00    -0.155290609540098E+05    -0.476115103859885E+05
    -0.139500000000000E+02     0.374679487179487E+01    -0.158569364571327E+05    -0.498652657966268E+05    -0.212965418764579E+04     0.442818596774741E+05     0.000000000000000E+00    -0.157240931303002E+05    -0.499981091234592E+05
    -0.144000000000000E+02     0.352179487179487E+01    -0.159149277317572E+05    -0.523882574615467E+05    -0.167174728219130E+04     0.466094768260457E+05     0.000000000000000E+00    -0.158384638533159E+05    -0.524647213399880E+05
    -0.148500000000000E+02     0.329679487179487E+01    -0.159227470281284E+05    -0.549689108948247E+05    -0.125026790581816E+04     0.490361956599804E+05     0.000000000000000E+00    -0.158827541005928E+05    -0.550089038223603E+05
    -0.153000000000000E+02     0.307179487179487E+01    -0.158870540384180E+05    -0.576101642129875E+05    -0.871318829362968E+03     0.515592019348665E+05     0.000000000000000E+00    -0.158688659002170E+05    -0.576283523511885E+05
    -0.157500000000000E+02     0.284679487179487E+01    -0.158164851956047E+05    -0.603145250767359E+05    -0.540239285503455E+03     0.541748550683402E+05     0.000000000000000E+00    -0.158099272555291E+05    -0.603210830168115E+05
    -0.162000000000000E+02     0.262179487179487E+01    -0.157217341263749E+05    -0.630840764786493E+05    -0.261499268332620E+03     0.568787103994218E+05     0.000000000000000E+00    -0.157202903679055E+05    -0.630855202371187E+05
    -0.166500000000000E+02     0.239679487179487E+01    -0.156156321040222E+05    -0.659204825308895E+05    -0.385938329328677E+02     0.596655046760128E+05     0.000000000000000E+00    -0.156156024948881E+05    -0.659205121400236E+05
    -0.171000000000000E+02     0.217179487179487E+01    -0.155132285013483E+05    -0.688249942529051E+05     0.126062605049944E+03     0.625291124624310E+05     0.000000000000000E+00    -0.155129304115868E+05    -0.688252923426665E+05
    -0.175500000000000E+02     0.194679487179487E+01    -0.154318712435627E+05    -0.717984553591357E+05     0.231241969832335E+03     0.654624834694856E+05     0.000000000000000E+00    -0.154309225973121E+05    -0.717994040053864E+05
    -0.180000000000000E+02     0.172179487179487E+01    -0.153912872611833E+05    -0.748413080467163E+05     0.277008225919124E+03     0.684575725776317E+05     0.000000000000000E+00    -0.153899965653969E+05    -0.748425987425028E+05
    -0.184500000000000E+02     0.149679487179487E+01    -0.154136629429365E+05    -0.779535987831812E+05     0.264823078529305E+03     0.715052757880392E+05     0.000000000000000E+00    -0.154125415793706E+05    -0.779547201467471E+05
    -0.189000000000000E+02     0.127179487179487E+01    -0.155237245886571E+05    -0.811349840941680E+05     0.197651674021981E+03     0.745953867208634E+05     0.000000000000000E+00    -0.155231291751561E+05    -0.811355795076690E+05
    -0.193500000000000E+02     0.104679487179487E+01    -0.157488188621891E+05    -0.843847363511226E+05     0.800683003221891E+02     0.777165897982745E+05     0.000000000000000E+00    -0.157487254573913E+05    -0.843848297559204E+05
    -0.198000000000000E+02     0.821794871794872E+00    -0.161189932442853E+05    -0.877017495590026E+05    -0.816379126531695E+02     0.808565081147591E+05     0.000000000000000E+00    -0.161189001388999E+05    -0.877018426643880E+05
    -0.202500000000000E+02     0.596794871794871E+00    -0.166670764855082E+05    -0.910845451439820E+05    -0.279357292569468E+03     0.840018264300732E+05     0.000000000000000E+00    -0.166660278151004E+05    -0.910855938143898E+05
    -0.207000000000000E+02     0.371794871794871E+00    -0.174287590591295E+05    -0.945312777411549E+05    -0.503053924248398E+03     0.871385129559050E+05     0.000000000000000E+00    -0.174254770330254E+05    -0.945345597672590E+05
    -0.118300000000000E+02     0.488461538461538E+01    -0.146294863362643E+05    -0.367031847441701E+05    -0.452894077888863E+04     0.329504296611053E+05     0.000000000000000E+00    -0.137364007151866E+05    -0.375962703652477E+05
    -0.122850000000000E+02     0.465711538461538E+01    -0.149648102691030E+05    -0.390282764014168E+05    -0.398407022183040E+04     0.347953962526043E+05     0.000000000000000E+00    -0.143223405552927E+05    -0.396707461152271E+05
    -0.127400000000000E+02     0.442961538461538E+01    -0.152412406417292E+05    -0.413933520159411E+05    -0.343935511581535E+04     0.367465162867176E+05     0.000000000000000E+00    -0.147964828938017E+05    -0.418381097638686E+05
    -0.131950000000000E+02     0.420211538461538E+01    -0.154569437282074E+05    -0.438036618343764E+05    -0.290350977457098E+04     0.388059050981559E+05     0.000000000000000E+00    -0.151625981997530E+05    -0.440980073628308E+05
    -0.136500000000000E+02     0.397461538461538E+01    -0.156117731646482E+05    -0.462639698895573E+05    -0.238499081210802E+04     0.409741907936683E+05     0.000000000000000E+00    -0.154273115053152E+05    -0.464484315488902E+05
    -0.141050000000000E+02     0.374711538461538E+01    -0.157073549721481E+05    -0.487785601169874E+05    -0.189188543809620E+04     0.432507162952532E+05     0.000000000000000E+00    -0.155994788533839E+05    -0.488864362357517E+05
    -0.145600000000000E+02     0.351961538461538E+01    -0.157471725797299E+05    -0.513512424713086E+05    -0.143179975324015E+04     0.456337246104655E+05     0.000000000000000E+00    -0.156896862904893E+05    -0.514087287605491E+05
    -0.150150000000000E+02     0.329211538461538E+01    -0.157366518472824E+05    -0.539853590427687E+05    -0.101174704465530E+04     0.481205080862593E+05     0.000000000000000E+00    -0.157099080191891E+05    -0.540121028708621E+05
    -0.154700000000000E+02     0.306461538461538E+01    -0.156832460885011E+05    -0.566837901736905E+05    -0.638036081243648E+03     0.507075114349681E+05     0.000000000000000E+00    -0.156733195981376E+05    -0.566937166640540E+05
    -0.159250000000000E+02     0.283711538461538E+01    -0.155965210938275E+05    -0.594489605749400E+05    -0.316159409069741E+03     0.533903857110401E+05     0.000000000000000E+00    -0.155942418232088E+05    -0.594512398455588E+05
    -0.163800000000000E+02     0.260961538461538E+01    -0.154882401533901E+05    -0.622828454423951E+05    -0.506816467364389E+02     0.561639960979453E+05     0.000000000000000E+00    -0.154881852618853E+05    -0.622829003338999E+05
    -0.168350000000000E+02     0.238211538461538E+01    -0.153724490799438E+05    -0.651869765734136E+05     0.154872219239186E+03     0.590223905281786E+05     0.000000000000000E+00    -0.153719675904333E+05    -0.651874580629241E+05
    -0.172900000000000E+02     0.215461538461538E+01    -0.152655612318103E+05    -0.681624484833021E+05     0.298128539049961E+03     0.619587391237620E+05     0.000000000000000E+00    -0.152638810232514E+05    -0.681641286918609E+05
    -0.177450000000000E+02     0.192711538461538E+01    -0.151864425358182E+05    -0.712099245217846E+05     0.377976704222756E+03     0.649652565586309E+05     0.000000000000000E+00    -0.151838925356866E+05    -0.712124745219161E+05
    -0.182000000000000E+02     0.169961538461538E+01    -0.151564965102431E+05    -0.743296429894705E+05     0.394680852242675E+03     0.680331210349415E+05     0.000000000000000E+00    -0.151538641329742E+05    -0.743322753667393E+05
    -0.186550000000000E+02     0.147211538461538E+01    -0.151997492877476E+05    -0.775214232543231E+05     0.349991571177146E+03     0.711524049220467E+05     0.000000000000000E+00    -0.151977838360982E+05    -0.775233887059726E+05
    -0.191100000000000E+02     0.124461538461538E+01    -0.153429346383217E+05    -0.807846718681288E+05     0.247257604300019E+03     0.743120334863389E+05     0.000000000000000E+00    -0.153420004416951E+05    -0.807856060647555E+05
    -0.195650000000000E+02     0.101711538461538E+01    -0.156155789922224E+05    -0.841183886829647E+05     0.915375547158029E+02     0.774997897808447E+05     0.000000000000000E+00    -0.156154566744810E+05    -0.841185110007061E+05
    -0.200200000000000E+02     0.789615384615384E+00    -0.160500864629143E+05    -0.875211729676673E+05    -0.110288410016283E+03     0.807023859017612E+05     0.000000000000000E+00    -0.160499162751501E+05    -0.875213431554316E+05
    -0.204750000000000E+02     0.562115384615384E+00    -0.166818238700095E+05    -0.909912295243014E+05    -0.349406853258120E+03     0.839056237017604E+05     0.000000000000000E+00    -0.166801809763687E+05    -0.909928724179422E+05
    -0.209300000000000E+02     0.334615384615384E+00    -0.175492057622075E+05    -0.945263748046280E+05    -0.614959364668607E+03     0.870946719394931E+05     0.000000000000000E+00    -0.175442932551334E+05    -0.945312873117022E+05
    -0.119600000000000E+02     0.489743589743590E+01    -0.145417479858238E+05    -0.354221558883211E+05    -0.433879732412118E+04     0.317421956530516E+05     0.000000000000000E+00    -0.136760675946838E+05    -0.362878362794611E+05
    -0.124200000000000E+02     0.466743589743590E+01    -0.148667223355558E+05    -0.377793591669867E+05    -0.377847872145699E+04     0.336076609371343E+05     0.000000000000000E+00    -0.142597023621368E+05    -0.383863791404057E+05
    -0.128800000000000E+02     0.443743589743590E+01    -0.151305215016137E+05    -0.401803541889694E+05    -0.322045472159312E+04     0.355887315944901E+05     0.000000000000000E+00    -0.147231194904891E+05    -0.405877562000939E+05
    -0.133400000000000E+02     0.420743589743590E+01    -0.153315155871445E+05    -0.426304591232715E+05    -0.267383161889071E+04     0.376864696317226E+05     0.000000000000000E+00    -0.150720889418417E+05    -0.428898857685742E+05
    -0.138000000000000E+02     0.397743589743590E+01    -0.154698810576597E+05    -0.451344778683252E+05    -0.214743391207940E+04     0.399004727463492E+05     0.000000000000000E+00    -0.153152335302287E+05    -0.452891253957562E+05
    -0.142600000000000E+02     0.374743589743590E+01    -0.155476905393725E+05    -0.476967065119967E+05    -0.164968632563328E+04     0.422291043656243E+05     0.000000000000000E+00    -0.154632606900781E+05    -0.477811363612910E+05
    -0.147200000000000E+02     0.351743589743590E+01    -0.155690026175343E+05    -0.503209397915934E+05    -0.118849583114687E+04     0.446696938393786E+05     0.000000000000000E+00    -0.155284041869771E+05    -0.503615382221507E+05
    -0.151800000000000E+02     0.328743589743590E+01    -0.155399516347724E+05    -0.530104775538693E+05    -0.771133668711159E+03     0.472186881582080E+05     0.000000000000000E+00    -0.155240886201707E+05    -0.530263405684710E+05
    -0.156400000000000E+02     0.305743589743590E+01    -0.154688374894265E+05    -0.557681312150308E+05    -0.404117368289476E+03     0.498717471739152E+05     0.000000000000000E+00    -0.154647854474870E+05    -0.557721832569704E+05
    -0.161000000000000E+02     0.282743589743590E+01    -0.153662154338858E+05    -0.585962302207429E+05    -0.930927710935588E+02     0.526237824034864E+05     0.000000000000000E+00    -0.153660149661348E+05    -0.585964306884940E+05
    -0.165600000000000E+02     0.259743589743590E+01    -0.152449858729263E+05    -0.614966285061351E+05     0.157283949040512E+03     0.554689453099711E+05     0.000000000000000E+00    -0.152444510172294E+05    -0.614971633618321E+05
    -0.170200000000000E+02     0.236743589743590E+01    -0.151204841620474E+05    -0.644707109558073E+05     0.343464264276323E+03     0.584005749254343E+05     0.000000000000000E+00    -0.151180938592068E+05    -0.644731012586479E+05
    -0.174800000000000E+02     0.213743589743590E+01    -0.150105704058091E+05    -0.675193998638356E+05     0.463125271401140E+03     0.614111173283570E+05     0.000000000000000E+00    -0.150064859815951E+05    -0.675234842880496E+05
    -0.179400000000000E+02     0.190743589743590E+01    -0.149357192561691E+05    -0.706431613937785E+05     0.515287670449955E+03     0.644920312876775E+05     0.000000000000000E+00    -0.149309533100247E+05    -0.706479273399230E+05
    -0.184000000000000E+02     0.167743589743590E+01    -0.149191097108198E+05    -0.738420120386825E+05     0.500433743329514E+03     0.676336957396682E+05     0.000000000000000E+00    -0.149148598205395E+05    -0.738462619289629E+05
    -0.188600000000000E+02     0.144743589743590E+01    -0.149867149115251E+05    -0.771155250810883E+05     0.420625332442252E+03     0.708253360015986E+05     0.000000000000000E+00    -0.149838673185804E+05    -0.771183726740331E+05
    -0.193200000000000E+02     0.121743589743590E+01    -0.151673919424576E+05    -0.804628370530366E+05     0.279621819310476E+03     0.740549870276110E+05     0.000000000000000E+00    -0.151661945093464E+05    -0.804640344861478E+05
    -0.197800000000000E+02     0.987435897435897E+00    -0.154929716285355E+05    -0.838826541960740E+05     0.829981032002196E+02     0.773095138345217E+05     0.000000000000000E+00    -0.154928709017193E+05    -0.838827549228902E+05
    -0.202400000000000E+02     0.757435897435897E+00    -0.159983483337598E+05    -0.873732589212591E+05    -0.161737420254618E+03     0.805747117253977E+05     0.000000000000000E+00    -0.159979818344035E+05    -0.873736254206154E+05
    -0.207000000000000E+02     0.527435897435898E+00    -0.167215697595511E+05    -0.909325162691682E+05    -0.445024880428300E+03     0.838355123887978E+05     0.000000000000000E+00    -0.167189011502416E+05    -0.909351848784778E+05
    -0.211600000000000E+02     0.297435897435898E+00    -0.177039267430866E+05    -0.945578803699015E+05    -0.755134953079256E+03     0.870763266422912E+05     0.000000000000000E+00    -0.176965078175792E+05    -0.945652992954089E+05
    -0.120900000000000E+02     0.491025641025641E+01    -0.144460356662700E+05    -0.341387576667269E+05    -0.414141105049322E+04     0.305356654931640E+05     0.000000000000000E+00    -0.136105377254729E+05    -0.349742556075240E+05
    -0.125550000000000E+02     0.467775641025641E+01    -0.147601752890085E+05    -0.365293655551354E+05    -0.356592097570256E+04     0.324225979965790E+05     0.000000000000000E+00    -0.141909412101593E+05    -0.370985996339846E+05
    -0.130200000000000E+02     0.444525641025641E+01    -0.150108371263596E+05    -0.389677102403140E+05    -0.299501395196721E+04     0.344351571322112E+05     0.000000000000000E+00    -0.146420857070401E+05    -0.393364616596336E+05
    -0.134850000000000E+02     0.421275641025641E+01    -0.151966164859565E+05    -0.414591722999984E+05    -0.243820114334762E+04     0.365731520872921E+05     0.000000000000000E+00    -0.149721733608940E+05    -0.416836154250610E+05
    -0.139500000000000E+02     0.398025641025641E+01    -0.153180403908367E+05    -0.440085887049616E+05    -0.190468632875476E+04     0.388349892741622E+05     0.000000000000000E+00    -0.151921459478092E+05    -0.441344831479891E+05
    -0.144150000000000E+02     0.374775641025641E+01    -0.153776623653768E+05    -0.466202596378228E+05    -0.140324137053233E+04     0.412179300239206E+05     0.000000000000000E+00    -0.153147633037245E+05    -0.466831586994751E+05
    -0.148800000000000E+02     0.351525641025641E+01    -0.153801572212280E+05    -0.492979553118573E+05    -0.942081683038870E+03     0.437183014810809E+05     0.000000000000000E+00    -0.153540106461538E+05    -0.493241018869315E+05
    -0.153450000000000E+02     0.328275641025641E+01    -0.153324158432518E+05    -0.520449227898042E+05    -0.528741701229949E+03     0.463316443524696E+05     0.000000000000000E+00    -0.153248023664060E+05    -0.520525362666501E+05
    -0.158100000000000E+02     0.305025641025641E+01    -0.152436399754548E+05    -0.548638928026764E+05    -0.169950349240312E+03     0.490527931212131E+05     0.000000000000000E+00    -0.152429109899555E+05    -0.548646217881756E+05
    -0.162750000000000E+02     0.281775641025641E+01    -0.151254370069241E+05    -0.577570865685688E+05     0.128493491033966E+03     0.518758927699076E+05     0.000000000000000E+00    -0.151250497259387E+05    -0.577574738495542E+05
    -0.167400000000000E+02     0.258525641025641E+01    -0.149919147577633E+05    -0.607262226114678E+05     0.361845511353309E+03     0.547943616107695E+05     0.000000000000000E+00    -0.149890520495442E+05    -0.607290853196869E+05
    -0.172050000000000E+02     0.235275641025641E+01    -0.148597762650268E+05    -0.637725235800600E+05     0.526540508552497E+03     0.578008132891014E+05     0.000000000000000E+00    -0.148541087692950E+05    -0.637781910757918E+05
    -0.176700000000000E+02     0.212025641025641E+01    -0.147484145686561E+05    -0.668967230665408E+05     0.620316915958519E+03     0.608869531467059E+05     0.000000000000000E+00    -0.147410367906284E+05    -0.669041008445685E+05
    -0.181350000000000E+02     0.188775641025641E+01    -0.146800074974145E+05    -0.700990724254243E+05     0.642341334808369E+03     0.640434655014327E+05     0.000000000000000E+00    -0.146725633628771E+05    -0.701065165599618E+05
    -0.186000000000000E+02     0.165525641025641E+01    -0.146796124548228E+05    -0.733793475923513E+05     0.593333065666966E+03     0.672599094739198E+05     0.000000000000000E+00    -0.146736156958107E+05    -0.733853443513634E+05
    -0.190650000000000E+02     0.142275641025641E+01    -0.147752612050943E+05    -0.767368559028986E+05     0.475688639844922E+03     0.705246421229077E+05     0.000000000000000E+00    -0.147716094858620E+05    -0.767405076221309E+05
    -0.195300000000000E+02     0.119025641025641E+01    -0.149980546590706E+05    -0.801704429113881E+05     0.293606350816423E+03     0.738247891253706E+05     0.000000000000000E+00    -0.149967319679427E+05    -0.801717656025161E+05
    -0.199950000000000E+02     0.957756410256410E+00    -0.153822576601565E+05    -0.836784992096958E+05     0.532107856370737E+02     0.771462853247963E+05     0.000000000000000E+00    -0.153822162027363E+05    -0.836785406671161E+05
    -0.204600000000000E+02     0.725256410256410E+00    -0.159653937702556E+05    -0.872589672460602E+05    -0.237322643638266E+03     0.804740104451785E+05     0.000000000000000E+00    -0.159646037774084E+05    -0.872597572389074E+05
    -0.209250000000000E+02     0.492756410256409E+00    -0.167883400557054E+05    -0.909093481438919E+05    -0.567643168537656E+03     0.837920494270879E+05     0.000000000000000E+00    -0.167839931117124E+05    -0.909136950878849E+05
    -0.213900000000000E+02     0.260256410256409E+00    -0.178954218732130E+05    -0.946267085205823E+05    -0.925100132754224E+03     0.870841125049627E+05     0.000000000000000E+00    -0.178842701522902E+05    -0.946378602415052E+05
    -0.122200000000000E+02     0.492307692307692E+01    -0.143420488139926E+05    -0.328532999597887E+05    -0.393675003658144E+04     0.293316220700175E+05     0.000000000000000E+00    -0.135396126652562E+05    -0.336557361085251E+05
    -0.126900000000000E+02     0.468807692307692E+01    -0.146448647557181E+05    -0.352786532471313E+05    -0.334639822278769E+04     0.312409903215779E+05     0.000000000000000E+00    -0.141157141950185E+05    -0.358078038078309E+05
    -0.131600000000000E+02     0.445307692307692E+01    -0.148818817063141E+05    -0.377558272755104E+05    -0.276307279854374E+04     0.332866167552499E+05     0.000000000000000E+00    -0.145528476166285E+05    -0.380848613651959E+05
    -0.136300000000000E+02     0.421807692307692E+01    -0.150519426219164E+05    -0.402902591043598E+05    -0.219670295594508E+04     0.354668267365282E+05     0.000000000000000E+00    -0.148621720010649E+05    -0.404800297252113E+05
    -0.141000000000000E+02     0.398307692307692E+01    -0.151559541239475E+05    -0.428868115268875E+05    -0.165688335579523E+04     0.377786551863644E+05     0.000000000000000E+00    -0.150573083652085E+05    -0.429854572856265E+05
    -0.145700000000000E+02     0.374807692307692E+01    -0.151969864918465E+05    -0.455497802634576E+05    -0.115274275541014E+04     0.402181294032026E+05     0.000000000000000E+00    -0.151532704248636E+05    -0.455934963304405E+05
    -0.150400000000000E+02     0.351307692307692E+01    -0.151803736557991E+05    -0.482829011549703E+05    -0.692812636422756E+03     0.427804835830477E+05     0.000000000000000E+00    -0.151658799202127E+05    -0.482973948905568E+05
    -0.155100000000000E+02     0.327807692307692E+01    -0.151138131894673E+05    -0.510893573562424E+05    -0.284895832587433E+03     0.454602934224368E+05     0.000000000000000E+00    -0.151115571972980E+05    -0.510916133484117E+05
    -0.159800000000000E+02     0.304307692307692E+01    -0.150074663027193E+05    -0.539717865293886E+05     0.640648424155226E+02     0.482515319060016E+05     0.000000000000000E+00    -0.150073609680717E+05    -0.539718918640361E+05
    -0.164500000000000E+02     0.280807692307692E+01    -0.148740578343596E+05    -0.569322880372021E+05     0.348117967175430E+03     0.511475554749224E+05     0.000000000000000E+00    -0.148711766428016E+05    -0.569351692287601E+05
    -0.169200000000000E+02     0.257307692307692E+01    -0.147289762448590E+05    -0.599724301365352E+05     0.562434884746681E+03     0.541410345105675E+05     0.000000000000000E+00    -0.147219855290258E+05    -0.599794208523685E+05
    -0.173900000000000E+02     0.233807692307692E+01    -0.145903736090842E+05    -0.630932571716801E+05     0.703441074844324E+03     0.572238446477770E+05     0.000000000000000E+00    -0.145801736937149E+05    -0.631034570870494E+05
    -0.178600000000000E+02     0.210307692307692E+01    -0.144792656090276E+05    -0.662952967677496E+05     0.768947526039538E+03     0.603869368031250E+05     0.000000000000000E+00    -0.144678569749109E+05    -0.663067054018663E+05
    -0.183300000000000E+02     0.186807692307692E+01    -0.144196315265379E+05    -0.695785670240582E+05     0.758282107955143E+03     0.636202046453544E+05     0.000000000000000E+00    -0.144092092236841E+05    -0.695889893269119E+05
    -0.188000000000000E+02     0.163307692307692E+01    -0.144385142360492E+05    -0.729425837075021E+05     0.672420943461164E+03     0.669123690192716E+05     0.000000000000000E+00    -0.144307867358081E+05    -0.729503112077432E+05
    -0.192700000000000E+02     0.139807692307692E+01    -0.145661201973114E+05    -0.763863674459407E+05     0.514119780870284E+03     0.702508999015847E+05     0.000000000000000E+00    -0.145618448848928E+05    -0.763906427583593E+05
    -0.197400000000000E+02     0.116307692307692E+01    -0.148359194481201E+05    -0.799084509215770E+05     0.288045366133435E+03     0.736219980974401E+05     0.000000000000000E+00    -0.148346444322969E+05    -0.799097259374002E+05
    -0.202100000000000E+02     0.928076923076923E+00    -0.152847455970462E+05    -0.835068860643383E+05     0.906815035242785E+00     0.770106613495872E+05     0.000000000000000E+00    -0.152847455849927E+05    -0.835068860763918E+05
    -0.206800000000000E+02     0.693076923076922E+00    -0.159528958161661E+05    -0.871792512452569E+05    -0.338413014610435E+03     0.804008631188963E+05     0.000000000000000E+00    -0.159512879733583E+05    -0.871808590880646E+05
    -0.211500000000000E+02     0.458076923076923E+00    -0.168842308337914E+05    -0.909226584698512E+05    -0.718726150764963E+03     0.837758773292551E+05     0.000000000000000E+00    -0.168772544753420E+05    -0.909296348283006E+05
    -0.216200000000000E+02     0.223076923076923E+00    -0.181262749271989E+05    -0.947337605715059E+05    -0.112640813496945E+04     0.871187891996258E+05     0.000000000000000E+00    -0.181097162177595E+05    -0.947503192809453E+05
    -0.123500000000000E+02     0.493589743589744E+01    -0.142294815212959E+05    -0.315660970708561E+05    -0.372478430656995E+04     0.281309347173861E+05     0.000000000000000E+00    -0.134630885690374E+05    -0.323324900231146E+05
    -0.128250000000000E+02     0.469839743589744E+01    -0.145204811620084E+05    -0.340275847873537E+05    -0.311991457081162E+04     0.300636923302987E+05     0.000000000000000E+00    -0.140336404093712E+05    -0.345144255399909E+05
    -0.133000000000000E+02     0.446089743589744E+01    -0.147433444884054E+05    -0.365451176658172E+05    -0.252467516348627E+04     0.321439967465021E+05     0.000000000000000E+00    -0.144548024455433E+05    -0.368336597086792E+05
    -0.137750000000000E+02     0.422339743589744E+01    -0.148971856480103E+05    -0.391241828939684E+05    -0.194942673466933E+04     0.343684216285145E+05     0.000000000000000E+00    -0.147413275852149E+05    -0.392800409567638E+05
    -0.142500000000000E+02     0.398589743589744E+01    -0.149833212505352E+05    -0.417696613669540E+05    -0.140416663568921E+04     0.367324287713453E+05     0.000000000000000E+00    -0.149099146038467E+05    -0.418430680136425E+05
    -0.147250000000000E+02     0.374839743589744E+01    -0.150053757937477E+05    -0.444858352715809E+05    -0.898390408780609E+03     0.392306701797556E+05     0.000000000000000E+00    -0.149780235341572E+05    -0.445131875311714E+05
    -0.152000000000000E+02     0.351089743589744E+01    -0.149693870893388E+05    -0.472763956705522E+05    -0.440953276737763E+03     0.418571951977749E+05     0.000000000000000E+00    -0.149633697082216E+05    -0.472824130516695E+05
    -0.156750000000000E+02     0.327339743589744E+01    -0.148839116887908E+05    -0.501444500867019E+05    -0.399316325677200E+02     0.446055592778507E+05     0.000000000000000E+00    -0.148838664673249E+05    -0.501444953081678E+05
    -0.161500000000000E+02     0.303589743589744E+01    -0.147601303092443E+05    -0.530925300872307E+05     0.297515470856398E+03     0.474688432726201E+05     0.000000000000000E+00    -0.147578212932590E+05    -0.530948391032161E+05
    -0.166250000000000E+02     0.279839743589744E+01    -0.146119532593664E+05    -0.561225988679416E+05     0.565284831142108E+03     0.504395988397431E+05     0.000000000000000E+00    -0.146042567347967E+05    -0.561302953925113E+05
    -0.171000000000000E+02     0.256089743589744E+01    -0.144561258652178E+05    -0.592360588374749E+05     0.758467606724305E+03     0.535097387271249E+05     0.000000000000000E+00    -0.144432828766306E+05    -0.592489018260620E+05
    -0.175750000000000E+02     0.232339743589744E+01    -0.143123338961205E+05    -0.624337592015441E+05     0.873487827211975E+03     0.566703919561247E+05     0.000000000000000E+00    -0.142964837887402E+05    -0.624496093089244E+05
    -0.180500000000000E+02     0.208589743589744E+01    -0.142033089905258E+05    -0.657160035471709E+05     0.908240903734940E+03     0.599117443337016E+05     0.000000000000000E+00    -0.141873004071742E+05    -0.657320121305225E+05
    -0.185250000000000E+02     0.184839743589744E+01    -0.141549340818814E+05    -0.690825574269211E+05     0.862232139290594E+03     0.632228849840506E+05     0.000000000000000E+00    -0.141414024358476E+05    -0.690960890729549E+05
    -0.190000000000000E+02     0.161089743589744E+01    -0.141963488244990E+05    -0.725326559431398E+05     0.736715239090601E+03     0.665916801200202E+05     0.000000000000000E+00    -0.141870465076879E+05    -0.725419582599510E+05
    -0.194750000000000E+02     0.137339743589743E+01    -0.143600550194225E+05    -0.760650113321866E+05     0.534830820907641E+03     0.700046963664888E+05     0.000000000000000E+00    -0.143554196945175E+05    -0.760696466570915E+05
    -0.199500000000000E+02     0.113589743589743E+01    -0.146820220402947E+05    -0.796778205486714E+05     0.261744925422141E+03     0.734471978524551E+05     0.000000000000000E+00    -0.146809679830092E+05    -0.796788746059569E+05
    -0.204250000000000E+02     0.898397435897436E+00    -0.152017922592257E+05    -0.833687728496896E+05    -0.752124734309675E+02     0.769032442705555E+05     0.000000000000000E+00    -0.152017092731637E+05    -0.833688558357515E+05
    -0.209000000000000E+02     0.660897435897436E+00    -0.159625864726599E+05    -0.871350573790579E+05    -0.466408958115618E+03     0.803559214687013E+05     0.000000000000000E+00    -0.159595301227515E+05    -0.871381137289663E+05
    -0.213750000000000E+02     0.423397435897435E+00    -0.170114093272440E+05    -0.909733707515493E+05    -0.899771157147716E+03     0.837877422411528E+05     0.000000000000000E+00    -0.170004649398855E+05    -0.909843151389078E+05
    -0.218500000000000E+02     0.185897435897435E+00    -0.183991547456943E+05    -0.948799246371288E+05    -0.136064623474862E+04     0.871812632012940E+05     0.000000000000000E+00    -0.183749555570874E+05    -0.949041238257357E+05
    -0.124800000000000E+02     0.494871794871795E+01    -0.141080224982409E+05    -0.302774677426196E+05    -0.350548585767509E+04     0.269345771993674E+05     0.000000000000000E+00    -0.133807549379516E+05    -0.310047353029089E+05
    -0.129600000000000E+02     0.470871794871795E+01    -0.143867096992251E+05    -0.327765275989031E+05    -0.288647703439688E+04     0.288916430634825E+05     0.000000000000000E+00    -0.139442901672736E+05    -0.332189471308545E+05
    -0.134400000000000E+02     0.446871794871795E+01    -0.145949097458577E+05    -0.353359990620615E+05    -0.227986890640834E+04     0.310082555105002E+05     0.000000000000000E+00    -0.143472625269923E+05    -0.355836462809269E+05
    -0.139200000000000E+02     0.422871794871795E+01    -0.147320326494533E+05    -0.379614126551694E+05    -0.169646728564364E+04     0.332789253110594E+05     0.000000000000000E+00    -0.146087916117169E+05    -0.380846536929058E+05
    -0.144000000000000E+02     0.398871794871795E+01    -0.147998367837368E+05    -0.406576591701001E+05    -0.114668423014715E+04     0.356973157598999E+05     0.000000000000000E+00    -0.147490858332089E+05    -0.407084101206280E+05
    -0.148800000000000E+02     0.374871794871795E+01    -0.148025399774929E+05    -0.434289976594239E+05    -0.640392088610451E+03     0.382565531580267E+05     0.000000000000000E+00    -0.147882211608513E+05    -0.434433164760655E+05
    -0.153600000000000E+02     0.350871794871795E+01    -0.147469306072146E+05    -0.462790634283065E+05    -0.186777544909190E+03     0.409494101879984E+05     0.000000000000000E+00    -0.147458242872731E+05    -0.462801697482480E+05
    -0.158400000000000E+02     0.326871794871795E+01    -0.146424786897524E+05    -0.492108760264069E+05     0.205804337359968E+03     0.437683717337230E+05     0.000000000000000E+00    -0.146412534688173E+05    -0.492121012473420E+05
    -0.163200000000000E+02     0.302871794871795E+01    -0.145014469749633E+05    -0.522268472397761E+05     0.529976070342448E+03     0.467056025008014E+05     0.000000000000000E+00    -0.144940032043619E+05    -0.522342910103775E+05
    -0.168000000000000E+02     0.278871794871795E+01    -0.143390020383594E+05    -0.553287890827550E+05     0.779483697388838E+03     0.497528395761083E+05     0.000000000000000E+00    -0.143241843163509E+05    -0.553436068047635E+05
    -0.172800000000000E+02     0.254871794871795E+01    -0.141733253737572E+05    -0.585179217898726E+05     0.949342748517975E+03     0.529012337473767E+05     0.000000000000000E+00    -0.141530108586315E+05    -0.585382363049983E+05
    -0.177600000000000E+02     0.230871794871795E+01    -0.140257244859268E+05    -0.617948818077445E+05     0.103598419588001E+04     0.561411628653588E+05     0.000000000000000E+00    -0.140032673401268E+05    -0.618173389535444E+05
    -0.182400000000000E+02     0.206871794871795E+01    -0.139207439832399E+05    -0.651597297869709E+05     0.103740040921953E+04     0.594620398355422E+05     0.000000000000000E+00    -0.138997490551560E+05    -0.651807247150549E+05
    -0.187200000000000E+02     0.182871794871795E+01    -0.138862766703199E+05    -0.686119585740350E+05     0.953291111338601E+03     0.628521375237713E+05     0.000000000000000E+00    -0.138696759021640E+05    -0.686285593421908E+05
    -0.192000000000000E+02     0.158871794871795E+01    -0.139536746406899E+05    -0.721505012032010E+05     0.785209333559837E+03     0.662984532398132E+05     0.000000000000000E+00    -0.139430822847847E+05    -0.721610935591063E+05
    -0.196800000000000E+02     0.134871794871795E+01    -0.141578603694225E+05    -0.757737388884127E+05     0.536707371189579E+03     0.697866367216895E+05     0.000000000000000E+00    -0.141531857148234E+05    -0.757784135430118E+05
    -0.201600000000000E+02     0.110871794871795E+01    -0.145374378057879E+05    -0.794795090151914E+05     0.213482738980856E+03     0.733010078835869E+05     0.000000000000000E+00    -0.145367360359411E+05    -0.794802107850382E+05
    -0.206400000000000E+02     0.868717948717948E+00    -0.151348034659036E+05    -0.832651131325343E+05    -0.176475873403456E+03     0.768246942675323E+05     0.000000000000000E+00    -0.151343463488717E+05    -0.832655702495662E+05
    -0.211200000000000E+02     0.628717948717948E+00    -0.159962575253828E+05    -0.871273249448125E+05    -0.622742645927566E+03     0.803399234798712E+05     0.000000000000000E+00    -0.159908059175678E+05    -0.871327765526274E+05
    -0.216000000000000E+02     0.388717948717948E+00    -0.171721149119837E+05    -0.910623983036697E+05    -0.111230867271972E+04     0.838285132832817E+05     0.000000000000000E+00    -0.171553745465825E+05    -0.910791386690709E+05
    -0.220800000000000E+02     0.148717948717948E+00    -0.187168163982584E+05    -0.950660751999201E+05    -0.162943600660906E+04     0.872726118543610E+05     0.000000000000000E+00    -0.186820570105937E+05    -0.951008345875848E+05
    -0.126100000000000E+02     0.496153846153846E+01    -0.139773550344874E+05    -0.289877351735036E+05    -0.327882868757011E+04     0.257436503000415E+05     0.000000000000000E+00    -0.132923927524287E+05    -0.296726974555623E+05
    -0.130950000000000E+02     0.471903846153846E+01    -0.142432302886899E+05    -0.315258539992126E+05    -0.264609557133404E+04     0.277258822437777E+05     0.000000000000000E+00    -0.138471701613164E+05    -0.319219141265862E+05
    -0.135800000000000E+02     0.447653846153846E+01    -0.144362567479063E+05    -0.341288944084831E+05    -0.202870589126603E+04     0.298804351208878E+05     0.000000000000000E+00    -0.142294346709484E+05    -0.343357164854410E+05
    -0.140650000000000E+02     0.423403846153846E+01    -0.145561661202030E+05    -0.368024230139602E+05    -0.143792460128264E+04     0.321993945638291E+05     0.000000000000000E+00    -0.144636085156296E+05    -0.368949806185335E+05
    -0.145500000000000E+02     0.399153846153846E+01    -0.146051917421014E+05    -0.395513318000117E+05    -0.884590690496245E+03     0.346743736850813E+05     0.000000000000000E+00    -0.145738634793781E+05    -0.395826600627350E+05
    -0.150350000000000E+02     0.374903846153846E+01    -0.145881855791079E+05    -0.423798465396335E+05    -0.378963465874852E+03     0.372968138720252E+05     0.000000000000000E+00    -0.145830190431610E+05    -0.423850130755803E+05
    -0.155200000000000E+02     0.350653846153846E+01    -0.145127352262431E+05    -0.452915352113551E+05     0.694311650981929E+02     0.400581208882301E+05     0.000000000000000E+00    -0.145125786034326E+05    -0.452916918341656E+05
    -0.160050000000000E+02     0.326403846153846E+01    -0.143892809085726E+05    -0.482893164161452E+05     0.451954411764466E+03     0.429496651276874E+05     0.000000000000000E+00    -0.143832565344334E+05    -0.482953407902844E+05
    -0.164900000000000E+02     0.302153846153846E+01    -0.142312324817363E+05    -0.513754677943170E+05     0.761008317630663E+03     0.459626788163370E+05     0.000000000000000E+00    -0.142156475393030E+05    -0.513910527367502E+05
    -0.169750000000000E+02     0.277903846153846E+01    -0.140550864324782E+05    -0.545516344424336E+05     0.990189477708889E+03     0.490880816843486E+05     0.000000000000000E+00    -0.140308895623400E+05    -0.545758313125718E+05
    -0.174600000000000E+02     0.253653846153846E+01    -0.138805428791767E+05    -0.578188373302141E+05     0.113444275585691E+04     0.523162637346284E+05     0.000000000000000E+00    -0.138512722028818E+05    -0.578481080065090E+05
    -0.179450000000000E+02     0.229403846153846E+01    -0.137306225723742E+05    -0.611774817174385E+05     0.119021500211835E+04     0.556368510016145E+05     0.000000000000000E+00    -0.137007845289727E+05    -0.612073197608400E+05
    -0.184300000000000E+02     0.205153846153846E+01    -0.136317838953068E+05    -0.646273655708534E+05     0.115560877006299E+04     0.590384783552265E+05     0.000000000000000E+00    -0.136056101265328E+05    -0.646535393396274E+05
    -0.189150000000000E+02     0.180903846153846E+01    -0.136140398644347E+05    -0.681676879810773E+05     0.103053603412701E+04     0.625085926735525E+05     0.000000000000000E+00    -0.135945796476710E+05    -0.681871481978409E+05
    -0.194000000000000E+02     0.156653846153846E+01    -0.137110751299714E+05    -0.717970575795068E+05     0.816871906953222E+03     0.660333101309357E+05     0.000000000000000E+00    -0.136995896085593E+05    -0.718085431009189E+05
    -0.198850000000000E+02     0.132403846153846E+01    -0.139603629764143E+05    -0.755135009552211E+05     0.518608356731307E+03     0.695973529803809E+05     0.000000000000000E+00    -0.139559938159305E+05    -0.755178701157048E+05
    -0.203700000000000E+02     0.108153846153846E+01    -0.144032823230737E+05    -0.793144710718882E+05     0.142007924538103E+03     0.731840941919060E+05     0.000000000000000E+00    -0.144029716500680E+05    -0.793147817448939E+05
    -0.208550000000000E+02     0.839038461538460E+00    -0.150852347246037E+05    -0.831968556846702E+05    -0.304242558322175E+03     0.767757428929404E+05     0.000000000000000E+00    -0.150838757540465E+05    -0.831982146552275E+05
    -0.213400000000000E+02     0.596538461538461E+00    -0.160557613715312E+05    -0.871569857571290E+05    -0.808878252977698E+03     0.803537100972566E+05     0.000000000000000E+00    -0.160465604136551E+05    -0.871661867150051E+05
    -0.218250000000000E+02     0.354038461538460E+00    -0.173686600907861E+05    -0.911906438781312E+05    -0.135790259564871E+04     0.838992031288500E+05     0.000000000000000E+00    -0.173436908891517E+05    -0.912156130797656E+05
    -0.223100000000000E+02     0.111538461538461E+00    -0.190821023462313E+05    -0.952930726787542E+05    -0.193443358030741E+04     0.873941088666587E+05     0.000000000000000E+00    -0.190330329608695E+05    -0.953421420641159E+05
    -0.127400000000000E+02     0.497435897435897E+01    -0.138371569611360E+05    -0.276972270340579E+05    -0.304478882180988E+04     0.245594103592297E+05     0.000000000000000E+00    -0.131977716382832E+05    -0.283366123569108E+05
    -0.132300000000000E+02     0.472935897435897E+01    -0.140897175466559E+05    -0.302759412156595E+05    -0.239878311922636E+04     0.265675700471471E+05     0.000000000000000E+00    -0.137417027016890E+05    -0.306239560606264E+05
    -0.137200000000000E+02     0.448435897435897E+01    -0.142670597295124E+05    -0.329242319565793E+05    -0.177124203325042E+04     0.287616750973293E+05     0.000000000000000E+00    -0.141003934915829E+05    -0.330908981945088E+05
    -0.142100000000000E+02     0.423935897435897E+01    -0.143692639394753E+05    -0.356476942469119E+05    -0.117390391844647E+04     0.311309632848915E+05     0.000000000000000E+00    -0.143046970748202E+05    -0.357122611115670E+05
    -0.147000000000000E+02     0.399435897435897E+01    -0.143990731354093E+05    -0.384512120457794E+05    -0.618047128075149E+03     0.336647166528045E+05     0.000000000000000E+00    -0.143832021824435E+05    -0.384670829987452E+05
    -0.151900000000000E+02     0.374935897435897E+01    -0.143620159623971E+05    -0.413389671411360E+05    -0.114328208113169E+03     0.363525241718863E+05     0.000000000000000E+00    -0.143615314486235E+05    -0.413394516549097E+05
    -0.156800000000000E+02     0.350435897435897E+01    -0.142665299088627E+05    -0.443144480095735E+05     0.327379908726730E+03     0.391843375971096E+05     0.000000000000000E+00    -0.142629634426404E+05    -0.443180144757958E+05
    -0.161700000000000E+02     0.325935897435897E+01    -0.141240844636945E+05    -0.473804586761253E+05     0.698149708975928E+03     0.421503768082309E+05     0.000000000000000E+00    -0.141094346886732E+05    -0.473951084511466E+05
    -0.166600000000000E+02     0.301435897435897E+01    -0.139493042733684E+05    -0.505391275740721E+05     0.990160904390020E+03     0.452409338240026E+05     0.000000000000000E+00    -0.139225290223795E+05    -0.505659028250610E+05
    -0.171500000000000E+02     0.276935897435897E+01    -0.137600922990715E+05    -0.537919164047463E+05     0.119686223792892E+04     0.484461155672019E+05     0.000000000000000E+00    -0.137243407171004E+05    -0.538276679867175E+05
    -0.176400000000000E+02     0.252435897435897E+01    -0.135777529738244E+05    -0.571396289973373E+05     0.131313328973699E+04     0.517555578400965E+05     0.000000000000000E+00    -0.135382056631002E+05    -0.571791763080615E+05
    -0.181300000000000E+02     0.227935897435897E+01    -0.134271153596052E+05    -0.605824201686959E+05     0.133544628312307E+04     0.551581378069703E+05     0.000000000000000E+00    -0.133893255772113E+05    -0.606202099510898E+05
    -0.186200000000000E+02     0.203435897435897E+01    -0.133366563044724E+05    -0.641198045831397E+05     0.126202789054069E+04     0.586417094593761E+05     0.000000000000000E+00    -0.133053126004549E+05    -0.641511482871571E+05
    -0.191100000000000E+02     0.178935897435897E+01    -0.133386235996877E+05    -0.677506656122575E+05     0.109302103956812E+04     0.621928856718089E+05     0.000000000000000E+00    -0.133166760077214E+05    -0.677726132042238E+05
    -0.196000000000000E+02     0.154435897435897E+01    -0.134691591368399E+05    -0.714732641947149E+05     0.830646718888458E+03     0.657968912255572E+05     0.000000000000000E+00    -0.134572663142253E+05    -0.714851570173294E+05
    -0.200900000000000E+02     0.129935897435897E+01    -0.137684220649676E+05    -0.752852476960583E+05     0.479365784269798E+03     0.694375134630868E+05     0.000000000000000E+00    -0.137646868656777E+05    -0.752889828953482E+05
    -0.205800000000000E+02     0.105435897435897E+01    -0.142807119476825E+05    -0.791836587685204E+05     0.460407645452673E+02     0.730971811161097E+05     0.000000000000000E+00    -0.142806792873637E+05    -0.791836914288392E+05
    -0.210700000000000E+02     0.809358974358974E+00    -0.150545919202926E+05    -0.831649442108253E+05    -0.459902332406807E+03     0.767572075884370E+05     0.000000000000000E+00    -0.150514866579414E+05    -0.831680494731766E+05
    -0.215600000000000E+02     0.564358974358975E+00    -0.161430118469254E+05    -0.872249638279925E+05    -0.102631221368285E+04     0.803982429667559E+05     0.000000000000000E+00    -0.161281965915924E+05    -0.872397790833255E+05
    -0.220500000000000E+02     0.319358974358975E+00    -0.176034314776510E+05    -0.913589992911429E+05    -0.163815049537392E+04     0.840009897472374E+05     0.000000000000000E+00    -0.175670652124351E+05    -0.913953655563587E+05
    -0.225400000000000E+02     0.743589743589745E-01    -0.194979436056054E+05    -0.955617629973027E+05    -0.227732989658549E+04     0.875472511310322E+05     0.000000000000000E+00    -0.194298219816366E+05    -0.956298846212715E+05
    -0.128700000000000E+02     0.498717948717949E+01    -0.136871006125704E+05    -0.264062754833508E+05    -0.280334434125567E+04     0.233833055239056E+05     0.000000000000000E+00    -0.130966454693843E+05    -0.269967306265369E+05
    -0.133650000000000E+02     0.473967948717949E+01    -0.139258407492614E+05    -0.290271714011755E+05    -0.214455563213451E+04     0.254180115345533E+05     0.000000000000000E+00    -0.136271961868315E+05    -0.293258159636055E+05
    -0.138600000000000E+02     0.449217948717949E+01    -0.140869878610781E+05    -0.317224452789489E+05    -0.150753734568019E+04     0.276532288612318E+05     0.000000000000000E+00    -0.139590467553487E+05    -0.318503863846783E+05
    -0.143550000000000E+02     0.424467948717949E+01    -0.141709993482585E+05    -0.344977122920902E+05    -0.904515776595096E+03     0.300748526825799E+05     0.000000000000000E+00    -0.141308288042184E+05    -0.345378828361303E+05
    -0.148500000000000E+02     0.399717948717949E+01    -0.141811639504902E+05    -0.373578386285572E+05    -0.347221284628685E+03     0.326695205263557E+05     0.000000000000000E+00    -0.141759632228360E+05    -0.373630393562114E+05
    -0.153450000000000E+02     0.374967948717949E+01    -0.141237313171105E+05    -0.403069508100016E+05     0.153281937015436E+03     0.354247937541210E+05     0.000000000000000E+00    -0.141228340039649E+05    -0.403078481231471E+05
    -0.158400000000000E+02     0.350217948717949E+01    -0.140080415773066E+05    -0.433484450129250E+05     0.586766093272400E+03     0.383290878728170E+05     0.000000000000000E+00    -0.139963117842612E+05    -0.433601748059704E+05
    -0.163350000000000E+02     0.325467948717949E+01    -0.138466549103163E+05    -0.464849963898340E+05     0.944010018808987E+03     0.413714455004629E+05     0.000000000000000E+00    -0.138193737858628E+05    -0.465122775142876E+05
    -0.168300000000000E+02     0.300717948717949E+01    -0.136554811156279E+05    -0.497185683903961E+05     0.121696940961653E+04     0.445412200009215E+05     0.000000000000000E+00    -0.136144604498803E+05    -0.497595890561437E+05
    -0.173250000000000E+02     0.275967948717949E+01    -0.134539091831807E+05    -0.530504220825945E+05     0.139894705460381E+04     0.478277174158126E+05     0.000000000000000E+00    -0.134045458433525E+05    -0.530997854224227E+05
    -0.178200000000000E+02     0.251217948717949E+01    -0.132649368635654E+05    -0.564811254738843E+05     0.148476306718995E+04     0.512198309787715E+05     0.000000000000000E+00    -0.132139854633768E+05    -0.565320768740729E+05
    -0.183150000000000E+02     0.226467948717949E+01    -0.131153002382244E+05    -0.600105628323476E+05     0.147092511689735E+04     0.547056949949582E+05     0.000000000000000E+00    -0.130692082428305E+05    -0.600566548277414E+05
    -0.188100000000000E+02     0.201717948717949E+01    -0.130356032896521E+05    -0.636379440078493E+05     0.135579866094450E+04     0.582723815236943E+05     0.000000000000000E+00    -0.129993031445912E+05    -0.636742441529101E+05
    -0.193050000000000E+02     0.176967948717949E+01    -0.130604474715952E+05    -0.673618137531922E+05     0.113977717583899E+04     0.619056627958605E+05     0.000000000000000E+00    -0.130365342580298E+05    -0.673857269667575E+05
    -0.198000000000000E+02     0.152217948717949E+01    -0.132285612792531E+05    -0.711800610452727E+05     0.825452388970382E+03     0.655898638470054E+05     0.000000000000000E+00    -0.132168060448989E+05    -0.711918162796268E+05
    -0.202950000000000E+02     0.127467948717949E+01    -0.135829298194782E+05    -0.750899284062364E+05     0.417784510203023E+03     0.693078331397969E+05     0.000000000000000E+00    -0.135800921611845E+05    -0.750927660645301E+05
    -0.207900000000000E+02     0.102717948717949E+01    -0.141709243809762E+05    -0.790880212246335E+05    -0.757275365309002E+02     0.730410640311563E+05     0.000000000000000E+00    -0.141708360428918E+05    -0.790881095627180E+05
    -0.212850000000000E+02     0.779679487179487E+00    -0.150444320045066E+05    -0.831703170765742E+05    -0.644875881638645E+03     0.767700071096291E+05     0.000000000000000E+00    -0.150383281917525E+05    -0.831764208893284E+05
    -0.217800000000000E+02     0.532179487179487E+00    -0.162599850530827E+05    -0.873321750468843E+05    -0.127657347827384E+04     0.804746231489584E+05     0.000000000000000E+00    -0.162370630855877E+05    -0.873550970143794E+05
    -0.222750000000000E+02     0.284679487179487E+00    -0.178788907821722E+05    -0.915683450502606E+05    -0.195468387074363E+04     0.841352392145539E+05     0.000000000000000E+00    -0.178270773383151E+05    -0.916201584941178E+05
    -0.227700000000000E+02     0.371794871794870E-01    -0.199673609098974E+05    -0.958729771524267E+05    -0.265985096291591E+04     0.877337867352239E+05     0.000000000000000E+00    -0.198742697589086E+05    -0.959660683034155E+05
    -0.130000000000000E+02     0.500000000000000E+01    -0.135268527882991E+05    -0.251152171853619E+05    -0.255447540949980E+04     0.222170220521311E+05     0.000000000000000E+00    -0.129887453560953E+05    -0.256533246175658E+05
    -0.135000000000000E+02     0.475000000000000E+01    -0.137512637974855E+05    -0.277799316498586E+05    -0.188343211722125E+04     0.242786869440271E+05     0.000000000000000E+00    -0.135028023273916E+05    -0.280283931199525E+05
    -0.140000000000000E+02     0.450000000000000E+01    -0.138957052181615E+05    -0.305239732831374E+05    -0.123765598689412E+04     0.265564834022861E+05     0.000000000000000E+00    -0.138040902029995E+05    -0.306155882982994E+05
    -0.145000000000000E+02     0.425000000000000E+01    -0.139610409258282E+05    -0.333529687599766E+05    -0.629876075942452E+03     0.290323829299949E+05     0.000000000000000E+00    -0.139406032377685E+05    -0.333734064480364E+05
    -0.150000000000000E+02     0.400000000000000E+01    -0.139511431370423E+05    -0.362717562082207E+05    -0.722876027025741E+02     0.316900285114824E+05     0.000000000000000E+00    -0.139509090286564E+05    -0.362719903166066E+05
    -0.155000000000000E+02     0.375000000000000E+01    -0.138730286571091E+05    -0.392843950103074E+05     0.423627058176306E+03     0.345147715818156E+05     0.000000000000000E+00    -0.138659684292131E+05    -0.392914552382034E+05
    -0.160000000000000E+02     0.350000000000000E+01    -0.137369951277758E+05    -0.423941756047957E+05     0.847277380331447E+03     0.374934156019334E+05     0.000000000000000E+00    -0.137119664086032E+05    -0.424192043239683E+05
    -0.165000000000000E+02     0.325000000000000E+01    -0.135567572749242E+05    -0.456036292878937E+05     0.118914369028601E+04     0.406138095612280E+05     0.000000000000000E+00    -0.135126930349468E+05    -0.456476935278711E+05
    -0.170000000000000E+02     0.300000000000000E+01    -0.133495831562636E+05    -0.489145380149870E+05     0.144095617204839E+04     0.438643792952051E+05     0.000000000000000E+00    -0.132912966385427E+05    -0.489728245327080E+05
    -0.175000000000000E+02     0.275000000000000E+01    -0.131364304090240E+05    -0.523279442021659E+05     0.159587387171163E+04     0.472336489284949E+05     0.000000000000000E+00    -0.130715540054208E+05    -0.523928206057692E+05
    -0.180000000000000E+02     0.250000000000000E+01    -0.129420824976490E+05    -0.558441605277535E+05     0.164866370205280E+04     0.507097851294079E+05     0.000000000000000E+00    -0.128788200639495E+05    -0.559074229614530E+05
    -0.185000000000000E+02     0.225000000000000E+01    -0.127952849614885E+05    -0.594627797338340E+05     0.159587944713238E+04     0.542801876678117E+05     0.000000000000000E+00    -0.127407746465946E+05    -0.595172900487278E+05
    -0.190000000000000E+02     0.200000000000000E+01    -0.127288816624921E+05    -0.631826844277799E+05     0.143604076689364E+04     0.579311467686502E+05     0.000000000000000E+00    -0.126880414275355E+05    -0.632235246627365E+05
    -0.195000000000000E+02     0.175000000000000E+01    -0.127799510329017E+05    -0.670020568837805E+05     0.116981220176202E+04     0.616475883611394E+05     0.000000000000000E+00    -0.127547247124060E+05    -0.670272832042762E+05
    -0.200000000000000E+02     0.150000000000000E+01    -0.129899423229446E+05    -0.709183888443695E+05     0.800182177244567E+03     0.654129312266347E+05     0.000000000000000E+00    -0.129788912861948E+05    -0.709294398811193E+05
    -0.205000000000000E+02     0.125000000000000E+01    -0.134048118485265E+05    -0.749284913219527E+05     0.332642008529213E+03     0.692090847817765E+05     0.000000000000000E+00    -0.134030133951123E+05    -0.749302897753670E+05
    -0.210000000000000E+02     0.100000000000000E+01    -0.140751592389245E+05    -0.790285044003365E+05    -0.224635094915710E+03     0.730166228627695E+05     0.000000000000000E+00    -0.140743823686615E+05    -0.790292812705996E+05
    -0.215000000000000E+02     0.750000000000000E+00    -0.150563636844798E+05    -0.832139070362550E+05    -0.860615024742194E+03     0.768151777863978E+05     0.000000000000000E+00    -0.150454985603355E+05    -0.832247721603993E+05
    -0.220000000000000E+02     0.500000000000000E+00    -0.164087201842911E+05    -0.874795268608985E+05    -0.156122376912316E+04     0.805841107089368E+05     0.000000000000000E+00    -0.163744410658564E+05    -0.875138059793331E+05
    -0.225000000000000E+02     0.250000000000000E+00    -0.181975757939070E+05    -0.918195499814411E+05    -0.230916840815296E+04     0.843035294612941E+05     0.000000000000000E+00    -0.181252193630599E+05    -0.918919064122882E+05
    -0.230000000000000E+02    -0.888178419700125E-15    -0.204934658730196E+05    -0.962275307825686E+05    -0.308375810924815E+04     0.879557439744009E+05     0.000000000000000E+00    -0.203681081554543E+05    -0.963528885001339E+05
 zone I=   21 ,j=   21 ,f=point, T="    1"
    -0.184000000000000E+02     0.743589743589743E+00    -0.176170682840622E+05    -0.963734107193160E+05    -0.628226557662929E+03     0.888907331335071E+05     0.000000000000000E+00    -0.176120573416288E+05    -0.963784216617494E+05
    -0.174800000000000E+02     0.743589743589743E+00    -0.184422548374109E+05    -0.101500872686201E+06    -0.127210992673057E+04     0.936776053827533E+05     0.000000000000000E+00    -0.184227760129014E+05    -0.101520351510710E+06
    -0.165600000000000E+02     0.743589743589743E+00    -0.192844030209631E+05    -0.107009588642519E+06    -0.207176032248302E+04     0.988544424865558E+05     0.000000000000000E+00    -0.192355025877403E+05    -0.107058489075742E+06
    -0.156400000000000E+02     0.743589743589743E+00    -0.201341530100847E+05    -0.112797842679278E+06    -0.295064829127282E+04     0.104325295987296E+06     0.000000000000000E+00    -0.200402919144972E+05    -0.112891703774865E+06
    -0.147200000000000E+02     0.743589743589743E+00    -0.209826509166081E+05    -0.118769417044723E+06    -0.384332511281765E+04     0.109993919336396E+06     0.000000000000000E+00    -0.208318288655710E+05    -0.118920239095761E+06
    -0.138000000000000E+02     0.743589743589743E+00    -0.218215487888329E+05    -0.124833592144348E+06    -0.469480720390232E+04     0.115765569327789E+06     0.000000000000000E+00    -0.216080240286001E+05    -0.125047116904581E+06
    -0.128800000000000E+02     0.743589743589743E+00    -0.226430046115248E+05    -0.130905146540886E+06    -0.545996052208059E+04     0.121549211098381E+06     0.000000000000000E+00    -0.223683404678001E+05    -0.131179810684611E+06
    -0.119600000000000E+02     0.743589743589743E+00    -0.234396823059167E+05    -0.136904356954314E+06    -0.610288496937725E+04     0.127259430460850E+06     0.000000000000000E+00    -0.231123727400748E+05    -0.137231666520156E+06
    -0.110400000000000E+02     0.743589743589743E+00    -0.242047517297079E+05    -0.142756998261852E+06    -0.659629879598994E+04     0.132817793732025E+06     0.000000000000000E+00    -0.238388600460774E+05    -0.143122889945483E+06
    -0.101200000000000E+02     0.743589743589743E+00    -0.249318886770646E+05    -0.148394343497963E+06    -0.692092300399116E+04     0.138153633786742E+06     0.000000000000000E+00    -0.245451346905965E+05    -0.148781097484431E+06
    -0.920000000000000E+01     0.743589743589743E+00    -0.256152748786196E+05    -0.153753163854354E+06    -0.706486575103017E+04     0.143204347458394E+06     0.000000000000000E+00    -0.252269313699422E+05    -0.154141507363031E+06
    -0.828000000000000E+01     0.743589743589743E+00    -0.262495980014723E+05    -0.158775728679972E+06    -0.702300675403492E+04     0.147915321161996E+06     0.000000000000000E+00    -0.258784645234413E+05    -0.159146862158003E+06
    -0.736000000000000E+01     0.743589743589743E+00    -0.268300516491892E+05    -0.163409805481010E+06    -0.679638169291402E+04     0.152239597641834E+06     0.000000000000000E+00    -0.264926883954267E+05    -0.163747168734773E+06
    -0.644000000000000E+01     0.743589743589743E+00    -0.273523353618030E+05    -0.167608659920903E+06    -0.639156661425865E+04     0.156137379335892E+06     0.000000000000000E+00    -0.270616701270340E+05    -0.167899325155672E+06
    -0.552000000000000E+01     0.743589743589743E+00    -0.278126546158135E+05    -0.171331055820329E+06    -0.582006233504449E+04     0.159575444043076E+06     0.000000000000000E+00    -0.275770220933332E+05    -0.171566688342809E+06
    -0.460000000000000E+01     0.743589743589743E+00    -0.282077208241870E+05    -0.174541255157207E+06    -0.509767884633369E+04     0.162526530932744E+06     0.000000000000000E+00    -0.280303529339752E+05    -0.174718623047419E+06
    -0.368000000000000E+01     0.743589743589743E+00    -0.285347513363567E+05    -0.177209018066703E+06    -0.424391971697675E+04     0.164968740725605E+06     0.000000000000000E+00    -0.284137068329056E+05    -0.177330062570154E+06
    -0.276000000000000E+01     0.743589743589743E+00    -0.287914694382222E+05    -0.179309602841223E+06    -0.328136649731454E+04     0.166884982942071E+06     0.000000000000000E+00    -0.287199680622775E+05    -0.179381104217167E+06
    -0.184000000000000E+01     0.743589743589743E+00    -0.289761043521502E+05    -0.180823765930416E+06    -0.223506312288013E+04     0.168262494808634E+06     0.000000000000000E+00    -0.289432133264223E+05    -0.180856656956143E+06
    -0.920000000000001E+00     0.743589743589743E+00    -0.290873912369738E+05    -0.181737761941174E+06    -0.113190031810084E+04     0.169092450024344E+06     0.000000000000000E+00    -0.290789986736993E+05    -0.181746154504449E+06
     0.000000000000000E+00     0.743589743589743E+00    -0.291245711879929E+05    -0.182043343637634E+06    -0.573460994343913E-10     0.169369670509746E+06     0.000000000000000E+00    -0.291245711879929E+05    -0.182043343637634E+06
    -0.186300000000000E+02     0.706410256410256E+00    -0.175146378953228E+05    -0.960571978932528E+05    -0.533749396028819E+03     0.886126144215450E+05     0.000000000000000E+00    -0.175110108775313E+05    -0.960608249110443E+05
    -0.176985000000000E+02     0.706410256410256E+00    -0.183231272073140E+05    -0.101147286283153E+06    -0.113522072415401E+04     0.933651010717517E+05     0.000000000000000E+00    -0.183075703445466E+05    -0.101162843145921E+06
    -0.167670000000000E+02     0.706410256410256E+00    -0.191589564313699E+05    -0.106650300936779E+06    -0.191635023281112E+04     0.985345676757593E+05     0.000000000000000E+00    -0.191170021320925E+05    -0.106692255236056E+06
    -0.158355000000000E+02     0.706410256410256E+00    -0.200112622671079E+05    -0.112459827679777E+06    -0.279497222944652E+04     0.104022285892805E+06     0.000000000000000E+00    -0.199268397283321E+05    -0.112544250218553E+06
    -0.149040000000000E+02     0.706410256410256E+00    -0.208697686195715E+05    -0.118475204455328E+06    -0.370071183212945E+04     0.109729016276555E+06     0.000000000000000E+00    -0.207296571930354E+05    -0.118615315881864E+06
    -0.139725000000000E+02     0.706410256410256E+00    -0.217247865992301E+05    -0.124601521324144E+06    -0.457432992451751E+04     0.115556641917034E+06     0.000000000000000E+00    -0.215217932982284E+05    -0.124804514625145E+06
    -0.130410000000000E+02     0.706410256410256E+00    -0.225672145219796E+05    -0.130749620464470E+06    -0.536706811082202E+04     0.121410477099439E+06     0.000000000000000E+00    -0.223015995309614E+05    -0.131015235455488E+06
    -0.121095000000000E+02     0.706410256410256E+00    -0.233885379091416E+05    -0.136836096172084E+06    -0.603999367077343E+04     0.127201372905769E+06     0.000000000000000E+00    -0.230678725915790E+05    -0.137156761489647E+06
    -0.111780000000000E+02     0.706410256410256E+00    -0.241808294874640E+05    -0.142783294860297E+06    -0.656334451458669E+04     0.132847264830107E+06     0.000000000000000E+00    -0.238187259501521E+05    -0.143145398397609E+06
    -0.102465000000000E+02     0.706410256410256E+00    -0.249367491891207E+05    -0.148519315059951E+06    -0.691587413792664E+04     0.138274102571244E+06     0.000000000000000E+00    -0.245509305364417E+05    -0.148905133712629E+06
    -0.931500000000000E+01     0.706410256410256E+00    -0.256495441517116E+05    -0.153978007419421E+06    -0.708419657687344E+04     0.143416239344672E+06     0.000000000000000E+00    -0.252596553725149E+05    -0.154367896198618E+06
    -0.838350000000000E+01     0.706410256410256E+00    -0.263130487182629E+05    -0.159098974704616E+06    -0.706213136288791E+04     0.148216403648995E+06     0.000000000000000E+00    -0.259385103773323E+05    -0.159473513045547E+06
    -0.745200000000000E+01     0.706410256410256E+00    -0.269216844372267E+05    -0.163827571798977E+06    -0.685004847777697E+04     0.152625376909743E+06     0.000000000000000E+00    -0.265797979146268E+05    -0.164169458321577E+06
    -0.652050000000000E+01     0.706410256410256E+00    -0.274704600624813E+05    -0.168114905703476E+06    -0.645421330865899E+04     0.156601483074072E+06     0.000000000000000E+00    -0.271748955213702E+05    -0.168410470244587E+06
    -0.558900000000000E+01     0.706410256410256E+00    -0.279549715533310E+05    -0.171917835536619E+06    -0.588613160292922E+04     0.160109974842132E+06     0.000000000000000E+00    -0.277147094578472E+05    -0.172158097632103E+06
    -0.465750000000000E+01     0.706410256410256E+00    -0.283714020745062E+05    -0.175198972534445E+06    -0.516189442322516E+04     0.163122381671225E+06     0.000000000000000E+00    -0.281901533970944E+05    -0.175380221211857E+06
    -0.372600000000000E+01     0.706410256410256E+00    -0.287165219961635E+05    -0.177926680050524E+06    -0.430152310239194E+04     0.165615868777674E+06     0.000000000000000E+00    -0.285926179066693E+05    -0.178050584140018E+06
    -0.279450000000000E+01     0.706410256410256E+00    -0.289876888938854E+05    -0.180075073555960E+06    -0.332831419844776E+04     0.167572644068237E+06     0.000000000000000E+00    -0.289144047817323E+05    -0.180148357668113E+06
    -0.186300000000000E+01     0.706410256410256E+00    -0.291828475486806E+05    -0.181624020639388E+06    -0.226818444954923E+04     0.168979440586304E+06     0.000000000000000E+00    -0.291491065183818E+05    -0.181657761669687E+06
    -0.931499999999998E+00     0.706410256410256E+00    -0.293005299469840E+05    -0.182559141006978E+06    -0.114901572895677E+04     0.169827094874891E+06     0.000000000000000E+00    -0.292919159909000E+05    -0.182567754963062E+06
     0.000000000000000E+00     0.706410256410256E+00    -0.293398552806562E+05    -0.182871806482430E+06    -0.658994599110829E-10     0.170110235955778E+06     0.000000000000000E+00    -0.293398552806562E+05    -0.182871806482430E+06
    -0.188600000000000E+02     0.669230769230769E+00    -0.174258419123058E+05    -0.957676454042228E+05    -0.454150025686458E+03     0.883566000943414E+05     0.000000000000000E+00    -0.174232092780560E+05    -0.957702780384726E+05
    -0.179170000000000E+02     0.669230769230769E+00    -0.182123765995841E+05    -0.100813091866000E+06    -0.100695898212227E+04     0.930696838768171E+05     0.000000000000000E+00    -0.182001029074631E+05    -0.100825365558121E+06
    -0.169740000000000E+02     0.669230769230769E+00    -0.190376672032031E+05    -0.106304439693691E+06    -0.176500672546706E+04     0.982274089663412E+05     0.000000000000000E+00    -0.190019837999236E+05    -0.106340123096970E+06
    -0.160310000000000E+02     0.669230769230769E+00    -0.198892256660298E+05    -0.112130429590962E+06    -0.264018074577709E+04     0.103728196662217E+06     0.000000000000000E+00    -0.198137187041438E+05    -0.112205936552848E+06
    -0.150880000000000E+02     0.669230769230769E+00    -0.207552389610465E+05    -0.118185816277498E+06    -0.355690536584282E+04     0.109469845081683E+06     0.000000000000000E+00    -0.206255593539963E+05    -0.118315495884549E+06
    -0.141450000000000E+02     0.669230769230769E+00    -0.216245690913510E+05    -0.124371368489004E+06    -0.445144525048144E+04     0.115350891335057E+06     0.000000000000000E+00    -0.214320734577641E+05    -0.124563864122591E+06
    -0.132020000000000E+02     0.669230769230769E+00    -0.224867530901562E+05    -0.130593868977200E+06    -0.527120891582940E+04     0.121272987604397E+06     0.000000000000000E+00    -0.222303416929760E+05    -0.130850280374380E+06
    -0.122590000000000E+02     0.669230769230769E+00    -0.233320030207901E+05    -0.136766114509826E+06    -0.597405223863497E+04     0.127143198585854E+06     0.000000000000000E+00    -0.230182450548524E+05    -0.137079872475764E+06
    -0.113160000000000E+02     0.669230769230769E+00    -0.241512059766965E+05    -0.142806915870639E+06    -0.652758196555081E+04     0.132875749139844E+06     0.000000000000000E+00    -0.237931857191786E+05    -0.143164936128156E+06
    -0.103730000000000E+02     0.669230769230769E+00    -0.249359240814340E+05    -0.148641097859413E+06    -0.690845922242645E+04     0.138393112464194E+06     0.000000000000000E+00    -0.245513089632002E+05    -0.149025712977647E+06
    -0.943000000000000E+01     0.669230769230769E+00    -0.256783944886768E+05    -0.154199499291943E+06    -0.710170302360093E+04     0.143626503508696E+06     0.000000000000000E+00    -0.252871659341873E+05    -0.154590727846433E+06
    -0.848700000000000E+01     0.669230769230769E+00    -0.263715293822142E+05    -0.159418973000040E+06    -0.709999378119524E+04     0.148515905272367E+06     0.000000000000000E+00    -0.259937155211394E+05    -0.159796786861115E+06
    -0.754400000000000E+01     0.669230769230769E+00    -0.270089159759510E+05    -0.164242385831533E+06    -0.690297681440494E+04     0.153009762152345E+06     0.000000000000000E+00    -0.266625636682437E+05    -0.164588738139240E+06
    -0.660100000000000E+01     0.669230769230769E+00    -0.275848165139071E+05    -0.168618618650268E+06    -0.651656585879269E+04     0.157064457765308E+06     0.000000000000000E+00    -0.272843541261417E+05    -0.168919081038033E+06
    -0.565800000000000E+01     0.669230769230769E+00    -0.280941682702177E+05    -0.172502566336111E+06    -0.595224657558077E+04     0.160643671756899E+06     0.000000000000000E+00    -0.278492431035863E+05    -0.172747491502743E+06
    -0.471500000000000E+01     0.669230769230769E+00    -0.285325835491335E+05    -0.175855137784946E+06    -0.522638006094365E+04     0.163717688548249E+06     0.000000000000000E+00    -0.283474064855260E+05    -0.176040314848553E+06
    -0.377200000000000E+01     0.669230769230769E+00    -0.288963496850203E+05    -0.178643255908673E+06    -0.435950635530054E+04     0.166262713204581E+06     0.000000000000000E+00    -0.287695409536320E+05    -0.178770064640061E+06
    -0.282900000000000E+01     0.669230769230769E+00    -0.291824290423593E+05    -0.180839857635211E+06    -0.337564795260790E+04     0.168260235819892E+06     0.000000000000000E+00    -0.291073297919750E+05    -0.180914956885595E+06
    -0.188600000000000E+01     0.669230769230769E+00    -0.293884590157469E+05    -0.182423893908497E+06    -0.230161330965201E+04     0.169696475313772E+06     0.000000000000000E+00    -0.293538511739214E+05    -0.182458501750323E+06
    -0.943000000000000E+00     0.669230769230769E+00    -0.295127520298948E+05    -0.183380329688487E+06    -0.116630035534156E+04     0.170561925473818E+06     0.000000000000000E+00    -0.295039121014626E+05    -0.183389169616920E+06
     0.000000000000000E+00     0.669230769230769E+00    -0.295542955396302E+05    -0.183700143951154E+06    -0.745018264135844E-10     0.170851019685320E+06     0.000000000000000E+00    -0.295542955396302E+05    -0.183700143951154E+06
    -0.190900000000000E+02     0.632051282051282E+00    -0.173524051327346E+05    -0.955057712851146E+05    -0.390624075907244E+03     0.881229892724232E+05     0.000000000000000E+00    -0.173504527746407E+05    -0.955077236432086E+05
    -0.181355000000000E+02     0.632051282051282E+00    -0.181113536713912E+05    -0.100499140057718E+06    -0.888189707627275E+03     0.927916454092997E+05     0.000000000000000E+00    -0.181017795666865E+05    -0.100508714162423E+06
    -0.171810000000000E+02     0.632051282051282E+00    -0.189215704342505E+05    -0.105972710248061E+06    -0.161833743467739E+04     0.979332838829990E+05     0.000000000000000E+00    -0.188914948772968E+05    -0.106002785805014E+06
    -0.162265000000000E+02     0.632051282051282E+00    -0.197688151062466E+05    -0.111810228443847E+06    -0.248668518502965E+04     0.103443357988345E+06     0.000000000000000E+00    -0.197016812365144E+05    -0.111877362313579E+06
    -0.152720000000000E+02     0.632051282051282E+00    -0.206396171190745E+05    -0.117901725201014E+06    -0.341217103408031E+04     0.109216724304786E+06     0.000000000000000E+00    -0.205200575403006E+05    -0.118021284779788E+06
    -0.143175000000000E+02     0.632051282051282E+00    -0.215212756511890E+05    -0.124143515043730E+06    -0.432631319645958E+04     0.115148607386825E+06     0.000000000000000E+00    -0.213392114261009E+05    -0.124325579268818E+06
    -0.133630000000000E+02     0.632051282051282E+00    -0.224018596278054E+05    -0.130438196464395E+06    -0.517247001784138E+04     0.121136995103168E+06     0.000000000000000E+00    -0.221547816599210E+05    -0.130685274432280E+06
    -0.124085000000000E+02     0.632051282051282E+00    -0.232702077208992E+05    -0.136694651923644E+06    -0.590509996675313E+04     0.127085121490097E+06     0.000000000000000E+00    -0.229636053754914E+05    -0.137001254269052E+06
    -0.114540000000000E+02     0.632051282051282E+00    -0.241159283492065E+05    -0.142828047850340E+06    -0.648902162638552E+04     0.132903425424894E+06     0.000000000000000E+00    -0.237622800885917E+05    -0.143181696110955E+06
    -0.104995000000000E+02     0.632051282051282E+00    -0.249293996782233E+05    -0.148759834641583E+06    -0.689867368640224E+04     0.138510812187914E+06     0.000000000000000E+00    -0.245462555888700E+05    -0.149142978730936E+06
    -0.954500000000000E+01     0.632051282051282E+00    -0.257017696202061E+05    -0.154417746662700E+06    -0.711737493474979E+04     0.143835264013681E+06     0.000000000000000E+00    -0.253094090114077E+05    -0.154810107271499E+06
    -0.859050000000000E+01     0.632051282051282E+00    -0.264249558341717E+05    -0.159735802247255E+06    -0.713658424946722E+04     0.148813930111202E+06     0.000000000000000E+00    -0.260439987864595E+05    -0.160116759294967E+06
    -0.763600000000000E+01     0.632051282051282E+00    -0.270916457258972E+05    -0.164654303697041E+06    -0.695516059049591E+04     0.153392841122424E+06     0.000000000000000E+00    -0.267408875459491E+05    -0.165005061876989E+06
    -0.668150000000000E+01     0.632051282051282E+00    -0.276952964479200E+05    -0.169119837282085E+06    -0.657862299148933E+04     0.157526377538170E+06     0.000000000000000E+00    -0.273899389969672E+05    -0.169425194733037E+06
    -0.572700000000000E+01     0.632051282051282E+00    -0.282301348995379E+05    -0.173085273240644E+06    -0.601841055162284E+04     0.161176597287669E+06     0.000000000000000E+00    -0.279805134149539E+05    -0.173334894725228E+06
    -0.477250000000000E+01     0.632051282051282E+00    -0.286911577268087E+05    -0.176509765779210E+06    -0.529114242740337E+04     0.164312504032420E+06     0.000000000000000E+00    -0.285020042128930E+05    -0.176698919293126E+06
    -0.381800000000000E+01     0.632051282051282E+00    -0.290741313225508E+05    -0.179358753072506E+06    -0.441787782447931E+04     0.166909317920307E+06     0.000000000000000E+00    -0.289443721575474E+05    -0.179488512237509E+06
    -0.286350000000000E+01     0.632051282051282E+00    -0.293755918263429E+05    -0.181603957263486E+06    -0.342337598945016E+04     0.168947795119619E+06     0.000000000000000E+00    -0.292986443913247E+05    -0.181680904698504E+06
    -0.190900000000000E+01     0.632051282051282E+00    -0.295928451245237E+05    -0.183223384463338E+06    -0.233535620167640E+04     0.170413630684038E+06     0.000000000000000E+00    -0.295573532949552E+05    -0.183258876292907E+06
    -0.954500000000000E+00     0.632051282051282E+00    -0.297239668501927E+05    -0.184201324751482E+06    -0.118375776508917E+04     0.171296970265609E+06     0.000000000000000E+00    -0.297148962641216E+05    -0.184210395337553E+06
     0.000000000000000E+00     0.632051282051282E+00    -0.297678023832092E+05    -0.184528352175569E+06    -0.831512566304903E-10     0.171592049039852E+06     0.000000000000000E+00    -0.297678023832092E+05    -0.184528352175569E+06
    -0.193200000000000E+02     0.594871794871795E+00    -0.172961246287824E+05    -0.952725851161245E+05    -0.344398406506857E+03     0.879120624646925E+05     0.000000000000000E+00    -0.172946035550123E+05    -0.952741061898947E+05
    -0.183540000000000E+02     0.594871794871795E+00    -0.180214679600685E+05    -0.100206274784424E+06    -0.779800552365220E+03     0.925312428852352E+05     0.000000000000000E+00    -0.180140695833005E+05    -0.100213673161192E+06
    -0.173880000000000E+02     0.594871794871795E+00    -0.188117486260796E+05    -0.105655812717476E+06    -0.147696591393278E+04     0.976524774010807E+05     0.000000000000000E+00    -0.187866369763798E+05    -0.105680924367176E+06
    -0.164220000000000E+02     0.594871794871795E+00    -0.196508401380837E+05    -0.111499800285069E+06    -0.233490764308344E+04     0.103168074577448E+06     0.000000000000000E+00    -0.195915223723117E+05    -0.111559118050841E+06
    -0.154560000000000E+02     0.594871794871795E+00    -0.205234877094421E+05    -0.117623400945113E+06    -0.326678102738395E+04     0.108969955257664E+06     0.000000000000000E+00    -0.204137058787966E+05    -0.117733182775759E+06
    -0.144900000000000E+02     0.594871794871795E+00    -0.214153082556100E+05    -0.123918340243637E+06    -0.419909781588887E+04     0.114950068677586E+06     0.000000000000000E+00    -0.212435774233872E+05    -0.124090071075860E+06
    -0.135240000000000E+02     0.594871794871795E+00    -0.223127903941361E+05    -0.130282905814789E+06    -0.507094054493535E+04     0.121002745040616E+06     0.000000000000000E+00    -0.220751508827497E+05    -0.130520545326175E+06
    -0.125580000000000E+02     0.594871794871795E+00    -0.232032944446628E+05    -0.136621947380836E+06    -0.583317686393795E+04     0.127027351241829E+06     0.000000000000000E+00    -0.229040806684140E+05    -0.136921161157085E+06
    -0.115920000000000E+02     0.594871794871795E+00    -0.240750524289259E+05    -0.142846876752167E+06    -0.644767386118354E+04     0.132930469775925E+06     0.000000000000000E+00    -0.237260580325890E+05    -0.143195871148504E+06
    -0.106260000000000E+02     0.594871794871795E+00    -0.249171680707551E+05    -0.148875667827286E+06    -0.688651238962607E+04     0.138627348879886E+06     0.000000000000000E+00    -0.245357615351811E+05    -0.149257074362860E+06
    -0.966000000000000E+01     0.594871794871795E+00    -0.257196167960737E+05    -0.154632856592821E+06    -0.713120139268145E+04     0.144042644069221E+06     0.000000000000000E+00    -0.253263339803615E+05    -0.155026139408533E+06
    -0.869400000000000E+01     0.594871794871795E+00    -0.264732457328984E+05    -0.160049541123517E+06    -0.717189223002238E+04     0.149110581906045E+06     0.000000000000000E+00    -0.260892808313160E+05    -0.160433506025099E+06
    -0.772800000000000E+01     0.594871794871795E+00    -0.271697737113398E+05    -0.165063381582239E+06    -0.700659300337318E+04     0.153774701605355E+06     0.000000000000000E+00    -0.268146720566237E+05    -0.165418483236955E+06
    -0.676200000000000E+01     0.594871794871795E+00    -0.278017912636020E+05    -0.169618600219971E+06    -0.664038288230462E+04     0.157987316816187E+06     0.000000000000000E+00    -0.274915429149784E+05    -0.169928848568595E+06
    -0.579600000000000E+01     0.594871794871795E+00    -0.283627606239828E+05    -0.173665981375818E+06    -0.608462643002879E+04     0.161708814402700E+06     0.000000000000000E+00    -0.281084098649757E+05    -0.173920332134825E+06
    -0.483000000000000E+01     0.594871794871795E+00    -0.288470157288734E+05    -0.177162871477002E+06    -0.535618792919389E+04     0.164906881159543E+06     0.000000000000000E+00    -0.286538372513322E+05    -0.177356049954544E+06
    -0.386400000000000E+01     0.594871794871795E+00    -0.292497622167590E+05    -0.180073179038868E+06    -0.447664570767912E+04     0.167555727448436E+06     0.000000000000000E+00    -0.291170060902579E+05    -0.180205935165369E+06
    -0.289800000000000E+01     0.594871794871795E+00    -0.295670774282181E+05    -0.182367374664876E+06    -0.347150646438948E+04     0.169635359504159E+06     0.000000000000000E+00    -0.294882481112017E+05    -0.182446203981892E+06
    -0.193200000000000E+01     0.594871794871795E+00    -0.297959104059231E+05    -0.184022491046609E+06    -0.236941959505062E+04     0.171130938990207E+06     0.000000000000000E+00    -0.297595170376928E+05    -0.184058884414839E+06
    -0.966000000000002E+00     0.594871794871795E+00    -0.299340818946398E+05    -0.185022122963769E+06    -0.120139151800367E+04     0.172032258278835E+06     0.000000000000000E+00    -0.299247758580991E+05    -0.185031429000309E+06
     0.000000000000000E+00     0.594871794871795E+00    -0.299802843412278E+05    -0.185356427284175E+06    -0.918457732980900E-10     0.172333351938274E+06     0.000000000000000E+00    -0.299802843412278E+05    -0.185356427284175E+06
    -0.195500000000000E+02     0.557692307692307E+00    -0.172588709099443E+05    -0.950690875931475E+05    -0.316731363590992E+03     0.877240895470190E+05     0.000000000000000E+00    -0.172575816564402E+05    -0.950703768466515E+05
    -0.185725000000000E+02     0.557692307692307E+00    -0.179441888402089E+05    -0.999353329286464E+05    -0.682701980641366E+03     0.922887015879778E+05     0.000000000000000E+00    -0.179385046935851E+05    -0.999410170752702E+05
    -0.175950000000000E+02     0.557692307692307E+00    -0.187093324640380E+05    -0.105354441727556E+06    -0.134153173710753E+04     0.973852419945444E+05     0.000000000000000E+00    -0.186885664197873E+05    -0.105375207771807E+06
    -0.166175000000000E+02     0.557692307692307E+00    -0.195361485915145E+05    -0.111199716962573E+06    -0.218528101871123E+04     0.102902625427261E+06     0.000000000000000E+00    -0.194840805547241E+05    -0.111251784999364E+06
    -0.156400000000000E+02     0.557692307692307E+00    -0.204074652862303E+05    -0.117351310094356E+06    -0.312101442339500E+04     0.108729821237411E+06     0.000000000000000E+00    -0.203070911358112E+05    -0.117451684244775E+06
    -0.146625000000000E+02     0.557692307692307E+00    -0.213070918652861E+05    -0.123696221071526E+06    -0.406996719397659E+04     0.114755542019774E+06     0.000000000000000E+00    -0.211455655164744E+05    -0.123857747420338E+06
    -0.136850000000000E+02     0.557692307692307E+00    -0.222198188992919E+05    -0.130128298330666E+06    -0.496671165080336E+04     0.120870475425715E+06     0.000000000000000E+00    -0.219916979436309E+05    -0.130356419286327E+06
    -0.127075000000000E+02     0.557692307692307E+00    -0.231314182123668E+05    -0.136548238796322E+06    -0.575832362440667E+04     0.126970092864514E+06     0.000000000000000E+00    -0.228398101814818E+05    -0.136839846827207E+06
    -0.117300000000000E+02     0.557692307692307E+00    -0.240286428821387E+05    -0.142863587881003E+06    -0.640354888815629E+04     0.132957055480428E+06     0.000000000000000E+00    -0.236845769426737E+05    -0.143207653820468E+06
    -0.107525000000000E+02     0.557692307692307E+00    -0.248992272397447E+05    -0.148988739485177E+06    -0.687196959091479E+04     0.138742868026033E+06     0.000000000000000E+00    -0.245198235492460E+05    -0.149368143175676E+06
    -0.977500000000000E+01     0.557692307692307E+00    -0.257318868698307E+05    -0.154844935997279E+06    -0.714317068969196E+04     0.144248766001451E+06     0.000000000000000E+00    -0.253378937200771E+05    -0.155238929147033E+06
    -0.879750000000000E+01     0.557692307692307E+00    -0.265163186105520E+05    -0.160360268293703E+06    -0.720590638229916E+04     0.149405964049989E+06     0.000000000000000E+00    -0.261294841959319E+05    -0.160747102708323E+06
    -0.782000000000000E+01     0.557692307692307E+00    -0.272432005535726E+05    -0.165469675738807E+06    -0.705726654000379E+04     0.154155431421897E+06     0.000000000000000E+00    -0.268838203637123E+05    -0.165829055928667E+06
    -0.684250000000000E+01     0.557692307692307E+00    -0.279041920440657E+05    -0.170114946184911E+06    -0.670184314018363E+04     0.158447350326992E+06     0.000000000000000E+00    -0.275890584064109E+05    -0.170430079822566E+06
    -0.586500000000000E+01     0.557692307692307E+00    -0.284919336807136E+05    -0.174244715972297E+06    -0.615089669898128E+04     0.162240386550451E+06     0.000000000000000E+00    -0.282328210227031E+05    -0.174503828630308E+06
    -0.488750000000000E+01     0.557692307692307E+00    -0.290000473157074E+05    -0.177814469929210E+06    -0.542152270395853E+04     0.165500873545861E+06     0.000000000000000E+00    -0.288027949297475E+05    -0.178011722315170E+06
    -0.391000000000000E+01     0.557692307692307E+00    -0.294231360547475E+05    -0.180786541371856E+06    -0.453581804675078E+04     0.168201986935061E+06     0.000000000000000E+00    -0.292873357034357E+05    -0.180922341723168E+06
    -0.293250000000000E+01     0.557692307692307E+00    -0.297567842570432E+05    -0.183130112104406E+06    -0.352004745572142E+04     0.170322967136276E+06     0.000000000000000E+00    -0.296760387035631E+05    -0.183210857657886E+06
    -0.195500000000000E+01     0.557692307692307E+00    -0.299975575353128E+05    -0.184821212418990E+06    -0.240380992861625E+04     0.171848433136132E+06     0.000000000000000E+00    -0.299602446974949E+05    -0.184858525256808E+06
    -0.977500000000002E+00     0.557692307692307E+00    -0.301430027557836E+05    -0.185842721095703E+06    -0.121920516521788E+04     0.172767819135870E+06     0.000000000000000E+00    -0.301334563666367E+05    -0.185852267484850E+06
     0.000000000000000E+00     0.557692307692307E+00    -0.301916480381923E+05    -0.186184365402601E+06    -0.100583364052044E-09     0.173074956886263E+06     0.000000000000000E+00    -0.301916480381923E+05    -0.186184365402601E+06
    -0.197800000000000E+02     0.520512820512820E+00    -0.172425890859084E+05    -0.948962700961704E+05    -0.308913035301135E+03     0.875593390066834E+05     0.000000000000000E+00    -0.172413602226783E+05    -0.948974989594005E+05
    -0.187910000000000E+02     0.520512820512820E+00    -0.178810464807624E+05    -0.996871439825884E+05    -0.597827437274936E+03     0.920642180029769E+05     0.000000000000000E+00    -0.178766778753533E+05    -0.996915125879975E+05
    -0.178020000000000E+02     0.520512820512820E+00    -0.186155015972534E+05    -0.105069286137205E+06    -0.121269059957915E+04     0.971317979894370E+05     0.000000000000000E+00    -0.185984944846527E+05    -0.105086293249806E+06
    -0.168130000000000E+02     0.520512820512820E+00    -0.194256272048813E+05    -0.110910545911306E+06    -0.203824906535886E+04     0.102647263219442E+06     0.000000000000000E+00    -0.193802383128144E+05    -0.110955934803373E+06
    -0.158240000000000E+02     0.520512820512820E+00    -0.202921948423619E+05    -0.117085915934486E+06    -0.297515720353368E+04     0.108496586782516E+06     0.000000000000000E+00    -0.202008334051349E+05    -0.117177277371713E+06
    -0.148350000000000E+02     0.520512820512820E+00    -0.211970748176278E+05    -0.123477532114646E+06    -0.393909344069913E+04     0.114565281838875E+06     0.000000000000000E+00    -0.210455941618414E+05    -0.123629012770432E+06
    -0.138460000000000E+02     0.520512820512820E+00    -0.221232362078272E+05    -0.129974673637998E+06    -0.485987649302808E+04     0.120740416432383E+06     0.000000000000000E+00    -0.219046889433465E+05    -0.130193220902479E+06
    -0.128570000000000E+02     0.520512820512820E+00    -0.230547468593249E+05    -0.136473762969064E+06    -0.568058159817215E+04     0.126913546540049E+06     0.000000000000000E+00    -0.227709455602114E+05    -0.136757564268178E+06
    -0.118680000000000E+02     0.520512820512820E+00    -0.239767733877019E+05    -0.142878365850674E+06    -0.635665674716310E+04     0.132983352887649E+06     0.000000000000000E+00    -0.236379028066113E+05    -0.143217236431764E+06
    -0.108790000000000E+02     0.520512820512820E+00    -0.248755811777552E+05    -0.149099191303964E+06    -0.685503891631432E+04     0.138857513391391E+06     0.000000000000000E+00    -0.244984441251439E+05    -0.149476328356575E+06
    -0.989000000000000E+01     0.520512820512820E+00    -0.257385343834984E+05    -0.155054091628384E+06    -0.715327029912217E+04     0.144453751222152E+06     0.000000000000000E+00    -0.253440446952886E+05    -0.155448581316594E+06
    -0.890100000000000E+01     0.520512820512820E+00    -0.265540959281609E+05    -0.160668062401689E+06    -0.723861453816745E+04     0.149700179579603E+06     0.000000000000000E+00    -0.261645333582802E+05    -0.161057624971569E+06
    -0.791200000000000E+01     0.520512820512820E+00    -0.273118275041886E+05    -0.165873242479944E+06    -0.710717295701679E+04     0.154535118431310E+06     0.000000000000000E+00    -0.269482363204462E+05    -0.166236833663687E+06
    -0.692300000000000E+01     0.520512820512820E+00    -0.280023895732436E+05    -0.170608913997525E+06    -0.676300079212406E+04     0.158906553112018E+06     0.000000000000000E+00    -0.276823777621482E+05    -0.170928925808620E+06
    -0.593400000000000E+01     0.520512820512820E+00    -0.286175413662041E+05    -0.174821502367113E+06    -0.621722342473181E+04     0.162771377672450E+06     0.000000000000000E+00    -0.283536345606233E+05    -0.175085409172694E+06
    -0.494500000000000E+01     0.520512820512820E+00    -0.291501408831646E+05    -0.178464576279701E+06    -0.548715261277267E+04     0.166094535401926E+06     0.000000000000000E+00    -0.289487652320887E+05    -0.178665951930777E+06
    -0.395600000000000E+01     0.520512820512820E+00    -0.295941448934360E+05    -0.181498847704591E+06    -0.459540272277077E+04     0.168848142162299E+06     0.000000000000000E+00    -0.294552523203481E+05    -0.181637740277679E+06
    -0.296700000000000E+01     0.520512820512820E+00    -0.299446089355450E+05    -0.183892171889391E+06    -0.356900696174316E+04     0.171010656817179E+06     0.000000000000000E+00    -0.298619121283545E+05    -0.183974868696581E+06
    -0.197800000000000E+01     0.520512820512820E+00    -0.301976873172350E+05    -0.185619547360020E+06    -0.243853360910124E+04     0.172566146647573E+06     0.000000000000000E+00    -0.301594366937328E+05    -0.185657797983522E+06
    -0.988999999999999E+00     0.520512820512820E+00    -0.303506331154654E+05    -0.186663115920707E+06    -0.123720224855211E+04     0.173503683063067E+06     0.000000000000000E+00    -0.303408413605275E+05    -0.186672907675645E+06
     0.000000000000000E+00     0.520512820512820E+00    -0.304017981764117E+05    -0.187012162653987E+06    -0.109361981279058E-09     0.173816892986096E+06     0.000000000000000E+00    -0.304017981764117E+05    -0.187012162653987E+06
    -0.200100000000000E+02     0.483333333333333E+00    -0.172493000294280E+05    -0.947551142576635E+05    -0.322265507560353E+03     0.874180885143745E+05     0.000000000000000E+00    -0.172479600878642E+05    -0.947564541992273E+05
    -0.190095000000000E+02     0.483333333333333E+00    -0.178336328021328E+05    -0.994625297013979E+05    -0.526133515503891E+03     0.918579636759123E+05     0.000000000000000E+00    -0.178302417851320E+05    -0.994659207183987E+05
    -0.180090000000000E+02     0.483333333333333E+00    -0.185314854186340E+05    -0.104801028763860E+06    -0.109111441934794E+04     0.968923342551796E+05     0.000000000000000E+00    -0.185176874982168E+05    -0.104814826684277E+06
    -0.170085000000000E+02     0.483333333333333E+00    -0.193202022536141E+05    -0.110632849938904E+06    -0.189426644292464E+04     0.102402213843655E+06     0.000000000000000E+00    -0.192809228922169E+05    -0.110672129300301E+06
    -0.160080000000000E+02     0.483333333333333E+00    -0.201783523101508E+05    -0.116827678288286E+06    -0.282950226967890E+04     0.108270496966570E+06     0.000000000000000E+00    -0.200955867773368E+05    -0.116910443821100E+06
    -0.150075000000000E+02     0.483333333333333E+00    -0.210857292197177E+05    -0.123262645441658E+06    -0.380665268380088E+04     0.114379529581475E+06     0.000000000000000E+00    -0.209441067450452E+05    -0.123404267916331E+06
    -0.140070000000000E+02     0.483333333333333E+00    -0.220233512421836E+05    -0.129822329596577E+06    -0.475053021135877E+04     0.120612789993027E+06     0.000000000000000E+00    -0.218144078893968E+05    -0.130031272949363E+06
    -0.130065000000000E+02     0.483333333333333E+00    -0.229734612658131E+05    -0.136398755518494E+06    -0.559999276143129E+04     0.126857907359773E+06     0.000000000000000E+00    -0.226976511134652E+05    -0.136674565670842E+06
    -0.120060000000000E+02     0.483333333333333E+00    -0.239195268072663E+05    -0.142891394540765E+06    -0.630700726724041E+04     0.133009529268582E+06     0.000000000000000E+00    -0.235861103877721E+05    -0.143224810960259E+06
    -0.110055000000000E+02     0.483333333333333E+00    -0.248462400115986E+05    -0.149207164564642E+06    -0.683571332728393E+04     0.138971426948094E+06     0.000000000000000E+00    -0.244716316254255E+05    -0.149581772950815E+06
    -0.100050000000000E+02     0.483333333333333E+00    -0.257395176522613E+05    -0.155260430059278E+06    -0.716148684646811E+04     0.144657720196715E+06     0.000000000000000E+00    -0.253447470390464E+05    -0.155655200672493E+06
    -0.900450000000000E+01     0.483333333333333E+00    -0.265865011311011E+05    -0.160973002061726E+06    -0.727000367724031E+04     0.149993331165652E+06     0.000000000000000E+00    -0.261943547894013E+05    -0.161365148403426E+06
    -0.800400000000000E+01     0.483333333333333E+00    -0.273755564783603E+05    -0.166274138176939E+06    -0.715630326072162E+04     0.154913850534768E+06     0.000000000000000E+00    -0.270078245049268E+05    -0.166641870150373E+06
    -0.700350000000000E+01     0.483333333333333E+00    -0.280962743526765E+05    -0.171100542577769E+06    -0.682385226783948E+04     0.159365000536727E+06     0.000000000000000E+00    -0.277713930572173E+05    -0.171425423873228E+06
    -0.600300000000000E+01     0.483333333333333E+00    -0.287394700410832E+05    -0.175396366004967E+06    -0.628360824046029E+04     0.163301852216792E+06     0.000000000000000E+00    -0.284707372620751E+05    -0.175665098783975E+06
    -0.500250000000000E+01     0.483333333333333E+00    -0.292971834590092E+05    -0.179113205767186E+06    -0.555308323252209E+04     0.166687921547119E+06     0.000000000000000E+00    -0.290916347956562E+05    -0.179318754430539E+06
    -0.400200000000000E+01     0.483333333333333E+00    -0.297626791502791E+05    -0.182210105740977E+06    -0.465540745116713E+04     0.169494239562418E+06     0.000000000000000E+00    -0.296206456276472E+05    -0.182352139263609E+06
    -0.300150000000000E+01     0.483333333333333E+00    -0.301304462871127E+05    -0.184653556370791E+06    -0.361839289787452E+04     0.171698467999505E+06     0.000000000000000E+00    -0.300457625409763E+05    -0.184738240116927E+06
    -0.200100000000000E+01     0.483333333333333E+00    -0.303961986701257E+05    -0.186417494668979E+06    -0.247359700959287E+04     0.173284113683871E+06     0.000000000000000E+00    -0.303569915546560E+05    -0.186456701784448E+06
    -0.100050000000000E+01     0.483333333333333E+00    -0.305568747283292E+05    -0.187483304215791E+06    -0.125538629987292E+04     0.174239880901429E+06     0.000000000000000E+00    -0.305468324816513E+05    -0.187493346462469E+06
     0.000000000000000E+00     0.483333333333333E+00    -0.306106375191297E+05    -0.187839815159379E+06    -0.118179541968558E-09     0.174559189946943E+06     0.000000000000000E+00    -0.306106375191297E+05    -0.187839815159379E+06
    -0.202400000000000E+02     0.446153846153845E+00    -0.172811015391929E+05    -0.946465915309726E+05    -0.358143119819096E+03     0.873006368804732E+05     0.000000000000000E+00    -0.172794436456583E+05    -0.946482494245073E+05
    -0.192280000000000E+02     0.446153846153845E+00    -0.178036024332745E+05    -0.992623037564338E+05    -0.468600124889796E+03     0.916700898449287E+05     0.000000000000000E+00    -0.178009068487967E+05    -0.992649993409117E+05
    -0.182160000000000E+02     0.446153846153845E+00    -0.184585638448689E+05    -0.104550346108740E+06    -0.977491438156582E+03     0.966670092666372E+05     0.000000000000000E+00    -0.184474667768140E+05    -0.104561443176795E+06
    -0.172040000000000E+02     0.446153846153845E+00    -0.192208401789513E+05    -0.110367187011382E+06    -0.175379876953886E+04     0.102167676071329E+06     0.000000000000000E+00    -0.191871068227437E+05    -0.110400920367589E+06
    -0.161920000000000E+02     0.446153846153845E+00    -0.200666450618493E+05    -0.116577053351444E+06    -0.268434946084791E+04     0.108051776738135E+06     0.000000000000000E+00    -0.199920399882769E+05    -0.116651658425016E+06
    -0.151800000000000E+02     0.446153846153845E+00    -0.209735513412435E+05    -0.123051930479608E+06    -0.367282506179296E+04     0.114198513128992E+06     0.000000000000000E+00    -0.208415721157475E+05    -0.123183909705104E+06
    -0.141680000000000E+02     0.446153846153845E+00    -0.219204910861670E+05    -0.129671562210149E+06    -0.463876990598712E+04     0.120487809386031E+06     0.000000000000000E+00    -0.217211570844499E+05    -0.129870896211866E+06
    -0.131560000000000E+02     0.446153846153845E+00    -0.228877555870056E+05    -0.136323450820938E+06    -0.551659968695347E+04     0.126803365068482E+06     0.000000000000000E+00    -0.226201040800062E+05    -0.136591102327938E+06
    -0.121440000000000E+02     0.446153846153845E+00    -0.238569953554980E+05    -0.142902857053442E+06    -0.625461003413099E+04     0.133035748671004E+06     0.000000000000000E+00    -0.235292834048262E+05    -0.143230569004113E+06
    -0.111320000000000E+02     0.446153846153845E+00    -0.248112201247353E+05    -0.149312800112720E+06    -0.681398508888060E+04     0.139084748800565E+06     0.000000000000000E+00    -0.244394004025267E+05    -0.149684619834929E+06
    -0.101200000000000E+02     0.446153846153845E+00    -0.257347988491614E+05    -0.155464057667430E+06    -0.716780608049118E+04     0.144860792410871E+06     0.000000000000000E+00    -0.253399646350643E+05    -0.155858891881527E+06
    -0.910800000000000E+01     0.446153846153845E+00    -0.266134597045731E+05    -0.161275165849822E+06    -0.730005990218554E+04     0.150285521103559E+06     0.000000000000000E+00    -0.262188770084788E+05    -0.161669748545916E+06
    -0.809600000000000E+01     0.446153846153845E+00    -0.274342900881195E+05    -0.166672419255743E+06    -0.720464768712643E+04     0.155291715679032E+06     0.000000000000000E+00    -0.270624902550621E+05    -0.167044219088801E+06
    -0.708400000000000E+01     0.446153846153845E+00    -0.281857366183029E+05    -0.171589870944635E+06    -0.688439338442258E+04     0.159822768301369E+06     0.000000000000000E+00    -0.278559961702292E+05    -0.171919611392708E+06
    -0.607200000000000E+01     0.446153846153845E+00    -0.288576051349779E+05    -0.175969332439533E+06    -0.635005233513467E+04     0.163831875152281E+06     0.000000000000000E+00    -0.285840150286680E+05    -0.176242922545843E+06
    -0.506000000000000E+01     0.446153846153845E+00    -0.294410606993519E+05    -0.179760373727071E+06    -0.561931984828134E+04     0.167281087424832E+06     0.000000000000000E+00    -0.292312889094314E+05    -0.179970145516991E+06
    -0.404800000000000E+01     0.446153846153845E+00    -0.299286275939850E+05    -0.182920323257474E+06    -0.471583977684520E+04     0.170140326232603E+06     0.000000000000000E+00    -0.297834036671855E+05    -0.183065547184274E+06
    -0.303600000000000E+01     0.446153846153845E+00    -0.303141893227901E+05    -0.185414267944565E+06    -0.366821309377885E+04     0.172386440800902E+06     0.000000000000000E+00    -0.302274822797663E+05    -0.185500974987589E+06
    -0.202400000000000E+01     0.446153846153845E+00    -0.305929886110328E+05    -0.187215053165761E+06    -0.250900646801085E+04     0.174002369050163E+06     0.000000000000000E+00    -0.305528059022661E+05    -0.187255235874527E+06
    -0.101200000000000E+01     0.446153846153845E+00    -0.307616274053312E+05    -0.188303282762073E+06    -0.127376084045176E+04     0.174976444117790E+06     0.000000000000000E+00    -0.307513294265101E+05    -0.188313580740894E+06
     0.000000000000000E+00     0.446153846153845E+00    -0.308180668736563E+05    -0.188667319038110E+06    -0.127033927564367E-09     0.175301878095665E+06     0.000000000000000E+00    -0.308180668736563E+05    -0.188667319038110E+06
    -0.204700000000000E+02     0.408974358974358E+00    -0.173401695027009E+05    -0.945716627587119E+05    -0.417932720800962E+03     0.872073174465248E+05     0.000000000000000E+00    -0.173379079557962E+05    -0.945739243056166E+05
    -0.194465000000000E+02     0.408974358974358E+00    -0.177926736687899E+05    -0.990872713885338E+05    -0.426230659222605E+03     0.915007328969915E+05     0.000000000000000E+00    -0.177904389867058E+05    -0.990895060706179E+05
    -0.184230000000000E+02     0.408974358974358E+00    -0.183980680964286E+05    -0.104317908082101E+06    -0.872526322609729E+03     0.964559525705175E+05     0.000000000000000E+00    -0.183892084001169E+05    -0.104326767778413E+06
    -0.173995000000000E+02     0.408974358974358E+00    -0.191285482166592E+05    -0.110114110038823E+06    -0.161732267334319E+04     0.101943821397847E+06     0.000000000000000E+00    -0.190998084188126E+05    -0.110142849836669E+06
    -0.163760000000000E+02     0.408974358974358E+00    -0.199578124101970E+05    -0.116334493528412E+06    -0.254000556987612E+04     0.107840630315862E+06     0.000000000000000E+00    -0.198909170447385E+05    -0.116401388893871E+06
    -0.153525000000000E+02     0.408974358974358E+00    -0.208610620074310E+05    -0.122845753890884E+06    -0.353779471695208E+04     0.114022446220944E+06     0.000000000000000E+00    -0.207384851173659E+05    -0.122968330780949E+06
    -0.143290000000000E+02     0.408974358974358E+00    -0.218150012884233E+05    -0.129522665536554E+06    -0.452469461582332E+04     0.120365678818537E+06     0.000000000000000E+00    -0.216252575147608E+05    -0.129712409310216E+06
    -0.133055000000000E+02     0.408974358974358E+00    -0.227978374829097E+05    -0.136248081946041E+06    -0.543044551446894E+04     0.126750103801792E+06     0.000000000000000E+00    -0.225384948957928E+05    -0.136507424533158E+06
    -0.122820000000000E+02     0.408974358974358E+00    -0.237892807702992E+05    -0.142912935670266E+06    -0.619947435781311E+04     0.133062171769567E+06     0.000000000000000E+00    -0.234675147117533E+05    -0.143234701728812E+06
    -0.112585000000000E+02     0.408974358974358E+00    -0.247705442796742E+05    -0.149416238330453E+06    -0.678984573794331E+04     0.139197617107846E+06     0.000000000000000E+00    -0.244017709200779E+05    -0.149785011690049E+06
    -0.102350000000000E+02     0.408974358974358E+00    -0.257243440897906E+05    -0.155665080618126E+06    -0.717221284432850E+04     0.145063086336135E+06     0.000000000000000E+00    -0.253296651997955E+05    -0.156059759508121E+06
    -0.921150000000000E+01     0.408974358974358E+00    -0.266348992290776E+05    -0.161574632295113E+06    -0.732876841403735E+04     0.150576851303539E+06     0.000000000000000E+00    -0.262380306376633E+05    -0.161971500886527E+06
    -0.818800000000000E+01     0.408974358974358E+00    -0.274879316756379E+05    -0.167068142193543E+06    -0.725219568195643E+04     0.155668801860368E+06     0.000000000000000E+00    -0.271121397033495E+05    -0.167443934165831E+06
    -0.716450000000000E+01     0.408974358974358E+00    -0.282706663572474E+05    -0.172076938215848E+06    -0.694461933100846E+04     0.160279932452270E+06     0.000000000000000E+00    -0.279360788027609E+05    -0.172411525770334E+06
    -0.614100000000000E+01     0.408974358974358E+00    -0.289718311513558E+05    -0.176540427334761E+06    -0.641655644237047E+04     0.164361511983208E+06     0.000000000000000E+00    -0.286933528877033E+05    -0.176818905598414E+06
    -0.511750000000000E+01     0.408974358974358E+00    -0.295816568850858E+05    -0.180406095593320E+06    -0.568586744569203E+04     0.167874089118313E+06     0.000000000000000E+00    -0.293676115124332E+05    -0.180620140965972E+06
    -0.409400000000000E+01     0.408974358974358E+00    -0.300918773352337E+05    -0.183629508104861E+06    -0.477670706931345E+04     0.170786449950367E+06     0.000000000000000E+00    -0.299434128278565E+05    -0.183777972612238E+06
    -0.307050000000000E+01     0.408974358974358E+00    -0.304957292282691E+05    -0.186174309053026E+06    -0.371847529048402E+04     0.173074616018214E+06     0.000000000000000E+00    -0.304069618534982E+05    -0.186263076427797E+06
    -0.204700000000000E+01     0.408974358974358E+00    -0.307879522403352E+05    -0.188012221691756E+06    -0.254476828558018E+04     0.174720948210167E+06     0.000000000000000E+00    -0.307467744371982E+05    -0.188053399494893E+06
    -0.102350000000000E+01     0.408974358974358E+00    -0.309647889972483E+05    -0.189123048345296E+06    -0.129232938032376E+04     0.175713404816521E+06     0.000000000000000E+00    -0.309542299297660E+05    -0.189133607412778E+06
     0.000000000000000E+00     0.408974358974358E+00    -0.310239850744985E+05    -0.189494670408193E+06    -0.135922983816376E-09     0.176044988388116E+06     0.000000000000000E+00    -0.310239850744985E+05    -0.189494670408193E+06
    -0.207000000000000E+02     0.371794871794871E+00    -0.174287590591295E+05    -0.945312777411549E+05    -0.503053924248398E+03     0.871385129559050E+05     0.000000000000000E+00    -0.174254770330254E+05    -0.945345597672590E+05
    -0.196650000000000E+02     0.371794871794871E+00    -0.178026294260258E+05    -0.989382290612813E+05    -0.400052164425537E+03     0.913500206974279E+05     0.000000000000000E+00    -0.178006569522371E+05    -0.989402015350700E+05
    -0.186300000000000E+02     0.371794871794871E+00    -0.183513814775649E+05    -0.104104377728482E+06    -0.776940265293510E+03     0.962592666901067E+05     0.000000000000000E+00    -0.183443428123356E+05    -0.104111416393711E+06
    -0.175950000000000E+02     0.371794871794871E+00    -0.190443750257517E+05    -0.109874166661071E+06    -0.148532584427020E+04     0.101730794072600E+06     0.000000000000000E+00    -0.190200922087514E+05    -0.109898449478071E+06
    -0.165600000000000E+02     0.371794871794871E+00    -0.198526261089688E+05    -0.116100447268266E+06    -0.239678436009671E+04     0.107637240648483E+06     0.000000000000000E+00    -0.197929778251750E+05    -0.116160095552060E+06
    -0.155250000000000E+02     0.371794871794871E+00    -0.207488069919770E+05    -0.122644479450187E+06    -0.340174978831941E+04     0.113851527891905E+06     0.000000000000000E+00    -0.206353671104124E+05    -0.122757919331752E+06
    -0.144900000000000E+02     0.371794871794871E+00    -0.217072461659154E+05    -0.129375931597854E+06    -0.440840529677193E+04     0.120246593006051E+06     0.000000000000000E+00    -0.215270492381828E+05    -0.129556128525587E+06
    -0.134550000000000E+02     0.371794871794871E+00    -0.227039283483011E+05    -0.136172880593190E+06    -0.534157392105727E+04     0.126698301817289E+06     0.000000000000000E+00    -0.224530274618818E+05    -0.136423781479610E+06
    -0.124200000000000E+02     0.371794871794871E+00    -0.237164944830292E+05    -0.142921811809020E+06    -0.614160924002981E+04     0.133088955710964E+06     0.000000000000000E+00    -0.234009064781292E+05    -0.143237399813920E+06
    -0.113850000000000E+02     0.371794871794871E+00    -0.247242417403733E+05    -0.149517619109070E+06    -0.676328605127733E+04     0.139310168002977E+06     0.000000000000000E+00    -0.243587698740930E+05    -0.149883090975350E+06
    -0.103500000000000E+02     0.371794871794871E+00    -0.257081235169847E+05    -0.155863604847968E+06    -0.717469104660313E+04     0.145264719393859E+06     0.000000000000000E+00    -0.253138203642237E+05    -0.156257908000729E+06
    -0.931500000000000E+01     0.371794871794871E+00    -0.266507494358930E+05    -0.161871479871245E+06    -0.735611348750797E+04     0.150867423280373E+06     0.000000000000000E+00    -0.262517484566353E+05    -0.162270480850503E+06
    -0.828000000000000E+01     0.371794871794871E+00    -0.275363853465061E+05    -0.167461363515333E+06    -0.729893588067222E+04     0.156045197128674E+06     0.000000000000000E+00    -0.271566798114962E+05    -0.167841069050343E+06
    -0.724500000000000E+01     0.371794871794871E+00    -0.283509533246098E+05    -0.172561783607566E+06    -0.700452465343783E+04     0.160736569393623E+06     0.000000000000000E+00    -0.280115324986739E+05    -0.172901204433502E+06
    -0.621000000000000E+01     0.371794871794871E+00    -0.290820316723681E+05    -0.177109676466180E+06    -0.648312082929039E+04     0.164890828764782E+06     0.000000000000000E+00    -0.287986349995947E+05    -0.177393073138953E+06
    -0.517500000000000E+01     0.371794871794871E+00    -0.297188549183230E+05    -0.181050386900312E+06    -0.575273070334119E+04     0.168466983367210E+06     0.000000000000000E+00    -0.295004851920999E+05    -0.181268756626535E+06
    -0.414000000000000E+01     0.371794871794871E+00    -0.302523138173950E+05    -0.184337668210002E+06    -0.483801651780928E+04     0.171432659189639E+06     0.000000000000000E+00    -0.301005578374622E+05    -0.184489424189935E+06
    -0.310500000000000E+01     0.371794871794871E+00    -0.306749553508824E+05    -0.186933682186193E+06    -0.376918713750344E+04     0.173763035142295E+06     0.000000000000000E+00    -0.305840899288981E+05    -0.187024547608177E+06
    -0.207000000000000E+01     0.371794871794871E+00    -0.309809827264616E+05    -0.188808999110727E+06    -0.258088872530432E+04     0.175439887299550E+06     0.000000000000000E+00    -0.309387899236098E+05    -0.188851191913578E+06
    -0.103500000000000E+01     0.371794871794871E+00    -0.311662553781874E+05    -0.189942597756349E+06    -0.131109541764642E+04     0.176450795751791E+06     0.000000000000000E+00    -0.311554297477808E+05    -0.189953423386755E+06
     0.000000000000000E+00     0.371794871794871E+00    -0.312282889664925E+05    -0.190321865386707E+06    -0.144844520632222E-09     0.176788552420999E+06     0.000000000000000E+00    -0.312282889664925E+05    -0.190321865386707E+06
    -0.209300000000000E+02     0.334615384615384E+00    -0.175492057622075E+05    -0.945263748046280E+05    -0.614959364668607E+03     0.870946719394931E+05     0.000000000000000E+00    -0.175442932551334E+05    -0.945312873117022E+05
    -0.198835000000000E+02     0.334615384615384E+00    -0.178353182021705E+05    -0.988159641142733E+05    -0.391115506459883E+03     0.912180798405222E+05     0.000000000000000E+00    -0.178334292598243E+05    -0.988178530566196E+05
    -0.188370000000000E+02     0.334615384615384E+00    -0.183199401563117E+05    -0.103910410951957E+06    -0.691471085895195E+03     0.960770295027157E+05     0.000000000000000E+00    -0.183143542417146E+05    -0.103915996866554E+06
    -0.177905000000000E+02     0.334615384615384E+00    -0.189694113172105E+05    -0.109647899033417E+06    -0.135830708582279E+04     0.101528711336987E+06     0.000000000000000E+00    -0.189490692891534E+05    -0.109668241061474E+06
    -0.167440000000000E+02     0.334615384615384E+00    -0.197518908535231E+05    -0.115875358900567E+06    -0.225500658202044E+04     0.107441768949802E+06     0.000000000000000E+00    -0.196990186536463E+05    -0.115928231100443E+06
    -0.156975000000000E+02     0.334615384615384E+00    -0.206373574099828E+05    -0.122448467921497E+06    -0.326488240469929E+04     0.113685941926599E+06     0.000000000000000E+00    -0.205327664885973E+05    -0.122553058842883E+06
    -0.146510000000000E+02     0.334615384615384E+00    -0.215976091073992E+05    -0.129231650290475E+06    -0.429000480000782E+04     0.120130736750550E+06     0.000000000000000E+00    -0.214268917713845E+05    -0.129402367626489E+06
    -0.136045000000000E+02     0.334615384615384E+00    -0.226062635426590E+05    -0.136098077027943E+06    -0.525002909153576E+04     0.126648131219956E+06     0.000000000000000E+00    -0.223639194128046E+05    -0.136340421157797E+06
    -0.125580000000000E+02     0.334615384615384E+00    -0.236387577887256E+05    -0.142929665980521E+06    -0.608102334181802E+04     0.133116253954247E+06     0.000000000000000E+00    -0.233295703696449E+05    -0.143238853399601E+06
    -0.115115000000000E+02     0.334615384615384E+00    -0.246723483946392E+05    -0.149617081821004E+06    -0.673429601383857E+04     0.139422535509395E+06     0.000000000000000E+00    -0.243104303140218E+05    -0.149978999901621E+06
    -0.104650000000000E+02     0.334615384615384E+00    -0.256861113855166E+05    -0.156059736048365E+06    -0.717522363253437E+04     0.145465807917849E+06     0.000000000000000E+00    -0.252924057553602E+05    -0.156453441678521E+06
    -0.941850000000000E+01     0.334615384615384E+00    -0.266609422625517E+05    -0.162165786987752E+06    -0.738207844629933E+04     0.151157338142759E+06     0.000000000000000E+00    -0.262599654568970E+05    -0.162566763793407E+06
    -0.837200000000000E+01     0.334615384615384E+00    -0.275795560030149E+05    -0.167852139790490E+06    -0.734485608848814E+04     0.156420989591786E+06     0.000000000000000E+00    -0.271960184048701E+05    -0.168235677388634E+06
    -0.732550000000000E+01     0.334615384615384E+00    -0.284264870602536E+05    -0.173044446434079E+06    -0.706410323892029E+04     0.161192755899783E+06     0.000000000000000E+00    -0.280822486633644E+05    -0.173388684830968E+06
    -0.627900000000000E+01     0.334615384615384E+00    -0.291880893636918E+05    -0.177677105722198E+06    -0.654974528538389E+04     0.165419892119203E+06     0.000000000000000E+00    -0.288997446652871E+05    -0.177965450420603E+06
    -0.523250000000000E+01     0.334615384615384E+00    -0.298525363188304E+05    -0.181693263284700E+06    -0.581991398513966E+04     0.169059827584794E+06     0.000000000000000E+00    -0.296297911826961E+05    -0.181916008420834E+06
    -0.418600000000000E+01     0.334615384615384E+00    -0.304098208072471E+05    -0.185044811577615E+06    -0.489977512642480E+04     0.172079003137531E+06     0.000000000000000E+00    -0.302547217546076E+05    -0.185199910630255E+06
    -0.313950000000000E+01     0.334615384615384E+00    -0.308517551865963E+05    -0.187692389883150E+06    -0.382035618995696E+04     0.174451740373475E+06     0.000000000000000E+00    -0.307587533181785E+05    -0.187785391751568E+06
    -0.209300000000000E+01     0.334615384615384E+00    -0.311719712906092E+05    -0.189605384309687E+06    -0.261737401043806E+04     0.176159223139896E+06     0.000000000000000E+00    -0.311287431740778E+05    -0.189648612426218E+06
    -0.104650000000000E+01     0.334615384615384E+00    -0.313659204290938E+05    -0.190761927791786E+06    -0.133006243805834E+04     0.177188650340400E+06     0.000000000000000E+00    -0.313548226421572E+05    -0.190773025578722E+06
     0.000000000000000E+00     0.334615384615384E+00    -0.314308733879350E+05    -0.191148900090182E+06    -0.153796311928964E-09     0.177532602444275E+06     0.000000000000000E+00    -0.314308733879350E+05    -0.191148900090182E+06
    -0.211600000000000E+02     0.297435897435897E+00    -0.177039267430866E+05    -0.945578803699015E+05    -0.755134953079260E+03     0.870763266422912E+05     0.000000000000000E+00    -0.176965078175793E+05    -0.945652992954089E+05
    -0.201020000000000E+02     0.297435897435897E+00    -0.178926550313511E+05    -0.987212544163876E+05    -0.400495539229819E+03     0.911050438675720E+05     0.000000000000000E+00    -0.178906706750652E+05    -0.987232387726735E+05
    -0.190440000000000E+02     0.297435897435897E+00    -0.183052339444848E+05    -0.103736656241387E+06    -0.616873332322705E+03     0.959092971244880E+05     0.000000000000000E+00    -0.183007799290927E+05    -0.103741110256780E+06
    -0.179860000000000E+02     0.297435897435897E+00    -0.189047904827045E+05    -0.109435843612290E+06    -0.123677636685369E+04     0.101337663890998E+06     0.000000000000000E+00    -0.188878976005467E+05    -0.109452736494448E+06
    -0.169280000000000E+02     0.297435897435897E+00    -0.196564447813506E+05    -0.115659668471219E+06    -0.211499999001530E+04     0.107254354319319E+06     0.000000000000000E+00    -0.196098728451106E+05    -0.115706240407459E+06
    -0.158700000000000E+02     0.297435897435897E+00    -0.205273101108869E+05    -0.122258076935035E+06    -0.312738867765812E+04     0.113525856337923E+06     0.000000000000000E+00    -0.204312591868040E+05    -0.122354127859118E+06
    -0.148120000000000E+02     0.297435897435897E+00    -0.214864928769005E+05    -0.129090109295334E+06    -0.416959785025211E+04     0.120018284518970E+06     0.000000000000000E+00    -0.213251644758889E+05    -0.129251437696346E+06
    -0.137540000000000E+02     0.297435897435897E+00    -0.225050926201019E+05    -0.136023900018448E+06    -0.515585568884784E+04     0.126599757682462E+06     0.000000000000000E+00    -0.222714023852735E+05    -0.136257590253276E+06
    -0.126960000000000E+02     0.297435897435897E+00    -0.235562020163252E+05    -0.142936677745443E+06    -0.601772495103783E+04     0.133144216106384E+06     0.000000000000000E+00    -0.232536277288107E+05    -0.143239252032958E+06
    -0.116380000000000E+02     0.297435897435897E+00    -0.246149068765276E+05    -0.149714765292124E+06    -0.670286478691782E+04     0.139534851454266E+06     0.000000000000000E+00    -0.242567917636487E+05    -0.150072880405002E+06
    -0.105800000000000E+02     0.297435897435897E+00    -0.256582861467899E+05    -0.156253579649028E+06    -0.717379255504806E+04     0.145666467115459E+06     0.000000000000000E+00    -0.252654010774343E+05    -0.156646464718383E+06
    -0.952200000000000E+01     0.297435897435897E+00    -0.266654119083164E+05    -0.162457631981430E+06    -0.740664563841460E+04     0.151446696582193E+06     0.000000000000000E+00    -0.262626188957811E+05    -0.162860424993966E+06
    -0.846400000000000E+01     0.297435897435897E+00    -0.276173493774345E+05    -0.168240527629342E+06    -0.738994326039060E+04     0.156796267419944E+06     0.000000000000000E+00    -0.272300642067721E+05    -0.168627812800004E+06
    -0.740600000000000E+01     0.297435897435897E+00    -0.284971569055953E+05    -0.173524966107508E+06    -0.712334830069758E+04     0.161648569128061E+06     0.000000000000000E+00    -0.281481185829389E+05    -0.173874004430165E+06
    -0.634800000000000E+01     0.297435897435897E+00    -0.292898859793731E+05    -0.178242741105412E+06    -0.661642911136677E+04     0.165948769252394E+06     0.000000000000000E+00    -0.289965643336690E+05    -0.178536062751116E+06
    -0.529000000000000E+01     0.297435897435897E+00    -0.299825812204658E+05    -0.182334740487269E+06    -0.588742133270032E+04     0.169652679875903E+06     0.000000000000000E+00    -0.297554093637438E+05    -0.182561912343991E+06
    -0.423200000000000E+01     0.297435897435897E+00    -0.305642803856947E+05    -0.185750946292034E+06    -0.496198970923269E+04     0.172725531711810E+06     0.000000000000000E+00    -0.304057859606221E+05    -0.185909440717107E+06
    -0.317400000000000E+01     0.297435897435897E+00    -0.310260143670042E+05    -0.188450434733397E+06    -0.387198990569185E+04     0.175140774637691E+06     0.000000000000000E+00    -0.309308369665897E+05    -0.188545612133811E+06
    -0.211600000000000E+01     0.297435897435897E+00    -0.313608071914625E+05    -0.190401376199780E+06    -0.265423032296061E+04     0.176878993253303E+06     0.000000000000000E+00    -0.313165230345038E+05    -0.190445660356739E+06
    -0.105800000000000E+01     0.297435897435897E+00    -0.315636760212610E+05    -0.191581035254347E+06    -0.134923391403793E+04     0.177927002675200E+06     0.000000000000000E+00    -0.315523003632829E+05    -0.191592410912325E+06
     0.000000000000000E+00     0.297435897435897E+00    -0.316316311537146E+05    -0.191975770634991E+06    -0.162776095484753E-09     0.178277171374148E+06     0.000000000000000E+00    -0.316316311537146E+05    -0.191975770634991E+06
    -0.213900000000000E+02     0.260256410256410E+00    -0.178954218732130E+05    -0.946267085205824E+05    -0.925100132754225E+03     0.870841125049627E+05     0.000000000000000E+00    -0.178842701522902E+05    -0.946378602415052E+05
    -0.203205000000000E+02     0.260256410256410E+00    -0.179766224417299E+05    -0.986548680190499E+05    -0.429291272487246E+03     0.910110624970470E+05     0.000000000000000E+00    -0.179743382351545E+05    -0.986571522256252E+05
    -0.192510000000000E+02     0.260256410256410E+00    -0.183088070776827E+05    -0.103583754395669E+06    -0.553918381824220E+03     0.957561073374378E+05     0.000000000000000E+00    -0.183052091554520E+05    -0.103587352317900E+06
    -0.181815000000000E+02     0.260256410256410E+00    -0.188516892233101E+05    -0.109238530940947E+06    -0.112125487334483E+04     0.101157716609618E+06     0.000000000000000E+00    -0.188377821206875E+05    -0.109252438043570E+06
    -0.171120000000000E+02     0.260256410256410E+00    -0.195671599726218E+05    -0.115453811578336E+06    -0.197709935898623E+04     0.107075113459588E+06     0.000000000000000E+00    -0.195264112203288E+05    -0.115494560330629E+06
    -0.160425000000000E+02     0.260256410256410E+00    -0.204192880713983E+05    -0.122073660864233E+06    -0.298946869452318E+04     0.113371422872998E+06     0.000000000000000E+00    -0.203314491800710E+05    -0.122161499755560E+06
    -0.149730000000000E+02     0.260256410256410E+00    -0.213743199171911E+05    -0.128951593987982E+06    -0.404729102404815E+04     0.119909400024072E+06     0.000000000000000E+00    -0.212222669425500E+05    -0.129103646962623E+06
    -0.139035000000000E+02     0.260256410256410E+00    -0.224006795593222E+05    -0.135950576771872E+06    -0.505909882445152E+04     0.126553340160974E+06     0.000000000000000E+00    -0.221757222870720E+05    -0.136175534044123E+06
    -0.128340000000000E+02     0.260256410256410E+00    -0.234689686988850E+05    -0.142943025671138E+06    -0.595172194990168E+04     0.133172987753207E+06     0.000000000000000E+00    -0.231732097557972E+05    -0.143238784614226E+06
    -0.117645000000000E+02     0.260256410256410E+00    -0.245519666887433E+05    -0.149810807773960E+06    -0.666898067632515E+04     0.139647245378759E+06     0.000000000000000E+00    -0.241979003418177E+05    -0.150164874120886E+06
    -0.106950000000000E+02     0.260256410256410E+00    -0.256246305335320E+05    -0.156445240801463E+06    -0.717037874588680E+04     0.145866811027112E+06     0.000000000000000E+00    -0.252327901927644E+05    -0.156837081142231E+06
    -0.962550000000000E+01     0.260256410256410E+00    -0.266640948896569E+05    -0.162747093107719E+06    -0.742979641146993E+04     0.151735598861325E+06     0.000000000000000E+00    -0.262596483501679E+05    -0.163151539647208E+06
    -0.855600000000000E+01     0.260256410256410E+00    -0.276496720652946E+05    -0.168626583679745E+06    -0.743418348115641E+04     0.157171118850376E+06     0.000000000000000E+00    -0.272587268725210E+05    -0.169017528872519E+06
    -0.748650000000000E+01     0.260256410256410E+00    -0.285628520203927E+05    -0.174003382137504E+06    -0.718225236270685E+04     0.162104086631992E+06     0.000000000000000E+00    -0.282090334433105E+05    -0.174357200714586E+06
    -0.641700000000000E+01     0.260256410256410E+00    -0.293873023666695E+05    -0.178806608733902E+06    -0.668317110804073E+04     0.166477527971390E+06     0.000000000000000E+00    -0.290889756089784E+05    -0.179104935491593E+06
    -0.534750000000000E+01     0.260256410256410E+00    -0.301088683676142E+05    -0.182974834354795E+06    -0.595525645771655E+04     0.170245599055599E+06     0.000000000000000E+00    -0.298772182584782E+05    -0.183206484463931E+06
    -0.427800000000000E+01     0.260256410256410E+00    -0.307155729384871E+05    -0.186456080518981E+06    -0.502466688541193E+04     0.173372295579089E+06     0.000000000000000E+00    -0.305536301515081E+05    -0.186618023305960E+06
    -0.320850000000000E+01     0.260256410256410E+00    -0.311976166463191E+05    -0.189207819378205E+06    -0.392409564240381E+04     0.175830181603305E+06     0.000000000000000E+00    -0.311002239399911E+05    -0.189305212084533E+06
    -0.213900000000000E+01     0.260256410256410E+00    -0.315473777099120E+05    -0.191196973717158E+06    -0.269146380204856E+04     0.177599235877628E+06     0.000000000000000E+00    -0.315020163690280E+05    -0.191242335058042E+06
    -0.106950000000000E+01     0.260256410256410E+00    -0.317594119998389E+05    -0.192399916953475E+06    -0.136861330426213E+04     0.178665887539141E+06     0.000000000000000E+00    -0.317477526338755E+05    -0.192411576319438E+06
     0.000000000000000E+00     0.260256410256410E+00    -0.318304530384431E+05    -0.192802473137738E+06    -0.171781572790515E-09     0.179022292806662E+06     0.000000000000000E+00    -0.318304530384431E+05    -0.192802473137738E+06
    -0.216200000000000E+02     0.223076923076923E+00    -0.181262749271989E+05    -0.947337605715059E+05    -0.112640813496945E+04     0.871187891996258E+05     0.000000000000000E+00    -0.181097162177595E+05    -0.947503192809453E+05
    -0.205390000000000E+02     0.223076923076923E+00    -0.180892714126016E+05    -0.986175628095014E+05    -0.478626039736689E+03     0.909363119093364E+05     0.000000000000000E+00    -0.180864267627287E+05    -0.986204074593742E+05
    -0.194580000000000E+02     0.223076923076923E+00    -0.183322589952867E+05    -0.103452338248985E+06    -0.503394542107764E+03     0.956174835937410E+05     0.000000000000000E+00    -0.183292820572353E+05    -0.103455315187036E+06
    -0.183770000000000E+02     0.223076923076923E+00    -0.188113281782308E+05    -0.109056485435163E+06    -0.101227506018694E+04     0.100988909530731E+06     0.000000000000000E+00    -0.187999749717727E+05    -0.109067838641621E+06
    -0.172960000000000E+02     0.223076923076923E+00    -0.194849429507359E+05    -0.115258219208095E+06    -0.184164650105493E+04     0.106904140501882E+06     0.000000000000000E+00    -0.194495425887382E+05    -0.115293619570093E+06
    -0.162150000000000E+02     0.223076923076923E+00    -0.203139407884297E+05    -0.121895570702696E+06    -0.285132651138142E+04     0.113222776552639E+06     0.000000000000000E+00    -0.202339689727573E+05    -0.121975542518368E+06
    -0.151340000000000E+02     0.223076923076923E+00    -0.212615326532654E+05    -0.128816387348733E+06    -0.392319272803745E+04     0.119804235809915E+06     0.000000000000000E+00    -0.211186193740882E+05    -0.128959300627910E+06
    -0.140530000000000E+02     0.223076923076923E+00    -0.222933029935218E+05    -0.135878332870826E+06    -0.495980402870782E+04     0.126509030607233E+06     0.000000000000000E+00    -0.220771395659795E+05    -0.136094496298369E+06
    -0.129720000000000E+02     0.223076923076923E+00    -0.233772097438034E+05    -0.142948887288452E+06    -0.588302178250352E+04     0.133202710285892E+06     0.000000000000000E+00    -0.230884576893583E+05    -0.143237639342897E+06
    -0.118910000000000E+02     0.223076923076923E+00    -0.244835843250401E+05    -0.149905346915939E+06    -0.663263110057414E+04     0.139759844445203E+06     0.000000000000000E+00    -0.241338088829622E+05    -0.150255122358017E+06
    -0.108100000000000E+02     0.223076923076923E+00    -0.255851316444875E+05    -0.156634824362468E+06    -0.716496208672029E+04     0.146066952484176E+06     0.000000000000000E+00    -0.251945612022968E+05    -0.157025394804659E+06
    -0.972900000000000E+01     0.223076923076923E+00    -0.266569300957269E+05    -0.163034248532077E+06    -0.745151108800599E+04     0.152024144801747E+06     0.000000000000000E+00    -0.262509957698982E+05    -0.163440182857905E+06
    -0.864800000000000E+01     0.223076923076923E+00    -0.276764315586651E+05    -0.169010364623654E+06    -0.747756194537114E+04     0.157545632191981E+06     0.000000000000000E+00    -0.272819170233437E+05    -0.169404879158975E+06
    -0.756700000000000E+01     0.223076923076923E+00    -0.286234613995344E+05    -0.174479734130943E+06    -0.724080724424387E+04     0.162559386375079E+06     0.000000000000000E+00    -0.282648843492104E+05    -0.174838311181267E+06
    -0.648600000000000E+01     0.223076923076923E+00    -0.294802184708928E+05    -0.179368734842542E+06    -0.674996956515300E+04     0.167006236702380E+06     0.000000000000000E+00    -0.291768592581975E+05    -0.179672094055238E+06
    -0.540500000000000E+01     0.223076923076923E+00    -0.302312751116239E+05    -0.183613560841902E+06    -0.602342273434045E+04     0.170838644668561E+06     0.000000000000000E+00    -0.299950950323258E+05    -0.183849740921200E+06
    -0.432400000000000E+01     0.223076923076923E+00    -0.308635771469369E+05    -0.187160222507326E+06    -0.508781307437364E+04     0.174019346173761E+06     0.000000000000000E+00    -0.306981323299182E+05    -0.187325667324344E+06
    -0.324300000000000E+01     0.223076923076923E+00    -0.313664438883666E+05    -0.189964546511973E+06    -0.397668065475790E+04     0.176520005698630E+06     0.000000000000000E+00    -0.312667954124408E+05    -0.190064194987899E+06
    -0.216200000000000E+01     0.223076923076923E+00    -0.317315681337734E+05    -0.191992175823855E+06    -0.272908054254893E+04     0.178319989982401E+06     0.000000000000000E+00    -0.316851080449519E+05    -0.192038635912677E+06
    -0.108100000000000E+01     0.223076923076923E+00    -0.319530161673431E+05    -0.193218569705839E+06    -0.138820405296516E+04     0.179405340419947E+06     0.000000000000000E+00    -0.319410671325309E+05    -0.193230518740651E+06
     0.000000000000000E+00     0.223076923076923E+00    -0.320272277595875E+05    -0.193629003715642E+06    -0.180810408901615E-09     0.179768001031924E+06     0.000000000000000E+00    -0.320272277595875E+05    -0.193629003715642E+06
    -0.218500000000000E+02     0.185897435897436E+00    -0.183991547456943E+05    -0.948799246371288E+05    -0.136064623474863E+04     0.871812632012940E+05     0.000000000000000E+00    -0.183749555570874E+05    -0.949041238257357E+05
    -0.207575000000000E+02     0.185897435897436E+00    -0.182327223314901E+05    -0.986100861640664E+05    -0.549647666139944E+03     0.908810061259158E+05     0.000000000000000E+00    -0.182289638301391E+05    -0.986138446654174E+05
    -0.196650000000000E+02     0.185897435897436E+00    -0.183772451204613E+05    -0.103343032396054E+06    -0.466107152460759E+03     0.954934396324065E+05     0.000000000000000E+00    -0.183746882167147E+05    -0.103345589299801E+06
    -0.185725000000000E+02     0.185897435897436E+00    -0.187849725535170E+05    -0.108890225168918E+06    -0.910380702958883E+03     0.100831259136751E+06     0.000000000000000E+00    -0.187757754377737E+05    -0.108899422284662E+06
    -0.174800000000000E+02     0.185897435897436E+00    -0.194107351828688E+05    -0.115073317570604E+06    -0.170899028223943E+04     0.106741506952177E+06     0.000000000000000E+00    -0.193802141977419E+05    -0.115103838555730E+06
    -0.163875000000000E+02     0.185897435897436E+00    -0.202119446720301E+05    -0.121724153941171E+06    -0.271317014607828E+04     0.113080035249973E+06     0.000000000000000E+00    -0.201394800771108E+05    -0.121796618536090E+06
    -0.152950000000000E+02     0.185897435897436E+00    -0.211485937958169E+05    -0.128684769872800E+06    -0.379741317723556E+04     0.119702932844287E+06     0.000000000000000E+00    -0.210146629653123E+05    -0.128818700703305E+06
    -0.142025000000000E+02     0.185897435897436E+00    -0.221832564403472E+05    -0.135807392209787E+06    -0.485801722126914E+04     0.126466973677728E+06     0.000000000000000E+00    -0.219759294785750E+05    -0.136014719171559E+06
    -0.131100000000000E+02     0.185897435897436E+00    -0.232810876030412E+05    -0.142954439048546E+06    -0.581163142234811E+04     0.133233520723201E+06     0.000000000000000E+00    -0.229995229877810E+05    -0.143236003663806E+06
    -0.120175000000000E+02     0.185897435897436E+00    -0.244098233926213E+05    -0.149998519737608E+06    -0.659380255906625E+04     0.139872773341158E+06     0.000000000000000E+00    -0.240645770574187E+05    -0.150343766072811E+06
    -0.109250000000000E+02     0.185897435897436E+00    -0.255397810291121E+05    -0.156822434877623E+06    -0.715752138025556E+04     0.146267003065152E+06     0.000000000000000E+00    -0.251507065257993E+05    -0.157211509380936E+06
    -0.983250000000000E+01     0.185897435897436E+00    -0.266438588438404E+05    -0.163319176321357E+06    -0.747176894079969E+04     0.152312433771155E+06     0.000000000000000E+00    -0.262366055308716E+05    -0.163726429634326E+06
    -0.874000000000000E+01     0.185897435897436E+00    -0.276975362794353E+05    -0.169391927173694E+06    -0.752006293744746E+04     0.157919895830073E+06     0.000000000000000E+00    -0.272995462800594E+05    -0.169789917173069E+06
    -0.764750000000000E+01     0.185897435897436E+00    -0.286788738898280E+05    -0.174954061791634E+06    -0.729900404462632E+04     0.163014546744990E+06     0.000000000000000E+00    -0.283155623431071E+05    -0.175317373338355E+06
    -0.655500000000000E+01     0.185897435897436E+00    -0.295685133402519E+05    -0.179929145784298E+06    -0.681682225025587E+04     0.167534964509417E+06     0.000000000000000E+00    -0.292600952184341E+05    -0.180237563906116E+06
    -0.546250000000000E+01     0.185897435897436E+00    -0.303496774072426E+05    -0.184250936012922E+06    -0.609192319156130E+04     0.171431877009214E+06     0.000000000000000E+00    -0.301089154914047E+05    -0.184491697928760E+06
    -0.437000000000000E+01     0.185897435897436E+00    -0.310081699786381E+05    -0.187863380590858E+06    -0.515143449088689E+04     0.174666735717676E+06     0.000000000000000E+00    -0.308391687971593E+05    -0.188032381772337E+06
    -0.327750000000000E+01     0.185897435897436E+00    -0.315323760535783E+05    -0.190720618883580E+06    -0.402975209150953E+04     0.177210292130194E+06     0.000000000000000E+00    -0.314304306538051E+05    -0.190822564283353E+06
    -0.218500000000000E+01     0.185897435897436E+00    -0.319132617425054E+05    -0.192786981508674E+06    -0.276708659345212E+04     0.179041295285431E+06     0.000000000000000E+00    -0.318656809176703E+05    -0.192834562333510E+06
    -0.109250000000000E+01     0.185897435897436E+00    -0.321443742671641E+05    -0.194036990335849E+06    -0.140800958929717E+04     0.180145397525451E+06     0.000000000000000E+00    -0.321321294772730E+05    -0.194049235125740E+06
     0.000000000000000E+00     0.185897435897436E+00    -0.322218419606008E+05    -0.194455358486927E+06    -0.189860232289543E-09     0.180514331048965E+06     0.000000000000000E+00    -0.322218419606008E+05    -0.194455358486927E+06
    -0.220800000000000E+02     0.148717948717949E+00    -0.187168163982584E+05    -0.950660751999201E+05    -0.162943600660906E+04     0.872726118543609E+05     0.000000000000000E+00    -0.186820570105937E+05    -0.951008345875848E+05
    -0.209760000000000E+02     0.148717948717949E+00    -0.184091659512459E+05    -0.986331746014192E+05    -0.643528636421135E+03     0.908454095194496E+05     0.000000000000000E+00    -0.184040041241519E+05    -0.986383364285132E+05
    -0.198720000000000E+02     0.148717948717949E+00    -0.184454776401544E+05    -0.103256452917384E+06    -0.442878684869581E+03     0.953839847435229E+05     0.000000000000000E+00    -0.184431650128013E+05    -0.103258765544737E+06
    -0.187680000000000E+02     0.148717948717949E+00    -0.187739327507861E+05    -0.108740261660092E+06    -0.816126949707192E+03     0.100684759952641E+06     0.000000000000000E+00    -0.187665298879180E+05    -0.108747664522960E+06
    -0.176640000000000E+02     0.148717948717949E+00    -0.193455135805213E+05    -0.114899527935754E+06    -0.157948663913393E+04     0.106587261769905E+06     0.000000000000000E+00    -0.193194121469478E+05    -0.114925629369328E+06
    -0.165600000000000E+02     0.148717948717949E+00    -0.201140034383185E+05    -0.121559754444511E+06    -0.257521157121653E+04     0.112943299314205E+06     0.000000000000000E+00    -0.200486734805095E+05    -0.121625084402320E+06
    -0.154560000000000E+02     0.148717948717949E+00    -0.210359866447147E+05    -0.128557019480433E+06    -0.367006437330810E+04     0.119605620120657E+06     0.000000000000000E+00    -0.209108602806684E+05    -0.128682145844479E+06
    -0.143520000000000E+02     0.148717948717949E+00    -0.220708485318250E+05    -0.135737976931523E+06    -0.475378468146773E+04     0.126427306440890E+06     0.000000000000000E+00    -0.218723823587676E+05    -0.135936443104580E+06
    -0.132480000000000E+02     0.148717948717949E+00    -0.231807754433427E+05    -0.142959856279714E+06    -0.573755733988010E+04     0.133265551529733E+06     0.000000000000000E+00    -0.229065675098016E+05    -0.143234064213255E+06
    -0.121440000000000E+02     0.148717948717949E+00    -0.243307547345394E+05    -0.150090462600871E+06    -0.655248060027507E+04     0.139986154180373E+06     0.000000000000000E+00    -0.239902714914986E+05    -0.150430945843911E+06
    -0.110400000000000E+02     0.148717948717949E+00    -0.254885747722652E+05    -0.157008176564787E+06    -0.714803432134727E+04     0.146467073050121E+06     0.000000000000000E+00    -0.251012229816943E+05    -0.157395528355358E+06
    -0.993600000000000E+01     0.148717948717949E+00    -0.266248249349480E+05    -0.163601954435189E+06    -0.749054816817573E+04     0.152600564669851E+06     0.000000000000000E+00    -0.262164244878176E+05    -0.164010354882320E+06
    -0.883200000000000E+01     0.148717948717949E+00    -0.277128956125945E+05    -0.169771328069734E+06    -0.756166981164346E+04     0.158293998231167E+06     0.000000000000000E+00    -0.273115272965503E+05    -0.170172696385778E+06
    -0.772800000000000E+01     0.148717948717949E+00    -0.287289782067892E+05    -0.175426404920009E+06    -0.735683312785705E+04     0.163469646568212E+06     0.000000000000000E+00    -0.283609584240280E+05    -0.175794424702770E+06
    -0.662400000000000E+01     0.148717948717949E+00    -0.296520651306951E+05    -0.180487868031532E+06    -0.688372639756631E+04     0.168063781113782E+06     0.000000000000000E+00    -0.293385626042852E+05    -0.180801370557942E+06
    -0.552000000000000E+01     0.148717948717949E+00    -0.304639498090535E+05    -0.184886976043753E+06    -0.616076050558380E+04     0.172025357142628E+06     0.000000000000000E+00    -0.302185540810470E+05    -0.185132371771760E+06
    -0.441600000000000E+01     0.148717948717949E+00    -0.311492266781839E+05    -0.188565563190052E+06    -0.521553714020450E+04     0.175314517240605E+06     0.000000000000000E+00    -0.309766141452257E+05    -0.188738175723010E+06
    -0.331200000000000E+01     0.148717948717949E+00    -0.316952911859840E+05    -0.191476039297740E+06    -0.408331699262537E+04     0.177901086901738E+06     0.000000000000000E+00    -0.315910070173882E+05    -0.191580323466335E+06
    -0.220800000000000E+01     0.148717948717949E+00    -0.320923397919298E+05    -0.193581389788058E+06    -0.280548795636498E+04     0.179763192270120E+06     0.000000000000000E+00    -0.320436158156130E+05    -0.193630113764375E+06
    -0.110400000000000E+01     0.148717948717949E+00    -0.323333699670757E+05    -0.194855175676180E+06    -0.142803332668306E+04     0.180886095799627E+06     0.000000000000000E+00    -0.323208232091063E+05    -0.194867722434149E+06
     0.000000000000000E+00     0.148717948717949E+00    -0.324141801940542E+05    -0.195281533571209E+06    -0.198928634693582E-09     0.181261318581289E+06     0.000000000000000E+00    -0.324141801940542E+05    -0.195281533571209E+06
    -0.223100000000000E+02     0.111538461538461E+00    -0.190821023462313E+05    -0.952930726787542E+05    -0.193443358030741E+04     0.873941088666587E+05     0.000000000000000E+00    -0.190330329608695E+05    -0.953421420641159E+05
    -0.211945000000000E+02     0.111538461538461E+00    -0.186208643471422E+05    -0.986875534358519E+05    -0.761466262771371E+03     0.908298504871415E+05     0.000000000000000E+00    -0.186136231530695E+05    -0.986947946299246E+05
    -0.200790000000000E+02     0.111538461538461E+00    -0.185387262850978E+05    -0.103193207104518E+06    -0.434548845139195E+03     0.952891297152732E+05     0.000000000000000E+00    -0.185364957153566E+05    -0.103195437674260E+06
    -0.189635000000000E+02     0.111538461538461E+00    -0.187795649959420E+05    -0.108607099656149E+06    -0.730080372725516E+03     0.100549386483439E+06     0.000000000000000E+00    -0.187736316020501E+05    -0.108613033050041E+06
    -0.178480000000000E+02     0.111538461538461E+00    -0.192902910000676E+05    -0.114737266469090E+06    -0.145349859558846E+04     0.106441431592342E+06     0.000000000000000E+00    -0.192681617659667E+05    -0.114759395703191E+06
    -0.167325000000000E+02     0.111538461538461E+00    -0.200208485024166E+05    -0.121402712328640E+06    -0.243766670715507E+04     0.112812651245854E+06     0.000000000000000E+00    -0.199622701006997E+05    -0.121461290730357E+06
    -0.156170000000000E+02     0.111538461538461E+00    -0.209242153924797E+05    -0.128433411427050E+06    -0.354126008284664E+04     0.119512414272382E+06     0.000000000000000E+00    -0.208076956287657E+05    -0.128549931190764E+06
    -0.145015000000000E+02     0.111538461538461E+00    -0.219564032442967E+05    -0.135670307363521E+06    -0.464715301870410E+04     0.126390158083314E+06     0.000000000000000E+00    -0.217668038858934E+05    -0.135859906721924E+06
    -0.133860000000000E+02     0.111538461538461E+00    -0.230764573164564E+05    -0.142965313144206E+06    -0.566080547001337E+04     0.133298930430447E+06     0.000000000000000E+00    -0.228097636954265E+05    -0.143232006765236E+06
    -0.122705000000000E+02     0.111538461538461E+00    -0.242464565520966E+05    -0.150181311182211E+06    -0.650864978993069E+04     0.140100106400703E+06     0.000000000000000E+00    -0.239109658872931E+05    -0.150516801847014E+06
    -0.111550000000000E+02     0.111538461538461E+00    -0.254315135789039E+05    -0.157192153297591E+06    -0.713647746810799E+04     0.146667271373408E+06     0.000000000000000E+00    -0.250461118665161E+05    -0.157577555009979E+06
    -0.100395000000000E+02     0.111538461538461E+00    -0.265997747091142E+05    -0.163882660717355E+06    -0.750782586931828E+04     0.152888635916524E+06     0.000000000000000E+00    -0.261904020267279E+05    -0.164292033399741E+06
    -0.892400000000000E+01     0.111538461538461E+00    -0.277224199395119E+05    -0.170148624075463E+06    -0.760236497208098E+04     0.158668027947762E+06     0.000000000000000E+00    -0.273177737930076E+05    -0.170553270221967E+06
    -0.780850000000000E+01     0.111538461538461E+00    -0.287736629514308E+05    -0.175896803412825E+06    -0.741428410728728E+04     0.163924765125129E+06     0.000000000000000E+00    -0.284009635662769E+05    -0.176269502797979E+06
    -0.669300000000000E+01     0.111538461538461E+00    -0.297307511107535E+05    -0.181044928177306E+06    -0.695067869682551E+04     0.168592756914024E+06     0.000000000000000E+00    -0.294121397151808E+05    -0.181363539572878E+06
    -0.557750000000000E+01     0.111538461538461E+00    -0.305739654679117E+05    -0.185521697223718E+06    -0.622993699220646E+04     0.172619146926163E+06     0.000000000000000E+00    -0.303238838843394E+05    -0.185771778807290E+06
    -0.446200000000000E+01     0.111538461538461E+00    -0.312866207578858E+05    -0.189266778813829E+06    -0.528012681318881E+04     0.175962744601481E+06     0.000000000000000E+00    -0.311103412488591E+05    -0.189443058322856E+06
    -0.334650000000000E+01     0.111538461538461E+00    -0.318550654002054E+05    -0.192230810616357E+06    -0.413738228640443E+04     0.178592436833999E+06     0.000000000000000E+00    -0.317483999275821E+05    -0.192337476088980E+06
    -0.223100000000000E+01     0.111538461538461E+00    -0.322686814989491E+05    -0.194375399706970E+06    -0.284429058398374E+04     0.180485722203525E+06     0.000000000000000E+00    -0.322187915251957E+05    -0.194425289680723E+06
    -0.111550000000000E+01     0.111538461538461E+00    -0.325198848427445E+05    -0.195673122568289E+06    -0.144827866218112E+04     0.181627472939308E+06     0.000000000000000E+00    -0.325070297755707E+05    -0.195685977635463E+06
     0.000000000000000E+00     0.111538461538461E+00    -0.326041249047679E+05    -0.196107525089888E+06    -0.208013170972486E-09     0.182009000093103E+06     0.000000000000000E+00    -0.326041249047680E+05    -0.196107525089888E+06
    -0.225400000000000E+02     0.743589743589745E-01    -0.194979436056054E+05    -0.955617629973027E+05    -0.227732989658549E+04     0.875472511310322E+05     0.000000000000000E+00    -0.194298219816366E+05    -0.956298846212715E+05
    -0.214130000000000E+02     0.743589743589745E-01    -0.188701518739727E+05    -0.987739364305414E+05    -0.904682852753614E+03     0.908347363143043E+05     0.000000000000000E+00    -0.188599102292581E+05    -0.987841780752560E+05
    -0.202860000000000E+02     0.743589743589745E-01    -0.186588191098074E+05    -0.103153893185291E+06    -0.441974674012670E+03     0.952088934988511E+05     0.000000000000000E+00    -0.186565073032298E+05    -0.103156204991868E+06
    -0.191590000000000E+02     0.743589743589745E-01    -0.188032719678952E+05    -0.108491236919829E+06    -0.652819020334056E+03     0.100425095514896E+06     0.000000000000000E+00    -0.187985204931904E+05    -0.108495988394534E+06
    -0.180320000000000E+02     0.743589743589745E-01    -0.192461167433036E+05    -0.114586944067661E+06    -0.133139627938860E+04     0.106304021117904E+06     0.000000000000000E+00    -0.192275279544349E+05    -0.114605532856530E+06
    -0.169050000000000E+02     0.743589743589745E-01    -0.199332393713818E+05    -0.121253363837522E+06    -0.230075541500775E+04     0.112688155430071E+06     0.000000000000000E+00    -0.198810212284107E+05    -0.121305581980493E+06
    -0.157780000000000E+02     0.743589743589745E-01    -0.208138054277611E+05    -0.128314218213374E+06    -0.341111581564468E+04     0.119423419202051E+06     0.000000000000000E+00    -0.207056754335510E+05    -0.128422348207584E+06
    -0.146510000000000E+02     0.743589743589745E-01    -0.218402601283544E+05    -0.135604601954408E+06    -0.453816914283544E+04     0.126355649616107E+06     0.000000000000000E+00    -0.216595153522248E+05    -0.135785346730538E+06
    -0.135240000000000E+02     0.743589743589745E-01    -0.229683283293566E+05    -0.142970982595043E+06    -0.558138117966012E+04     0.133333780221823E+06     0.000000000000000E+00    -0.227092947465924E+05    -0.143230016177807E+06
    -0.123970000000000E+02     0.743589743589745E-01    -0.241570145272445E+05    -0.150271200444925E+06    -0.646229367920394E+04     0.140214746658983E+06     0.000000000000000E+00    -0.238267411421822E+05    -0.150601473829988E+06
    -0.112700000000000E+02     0.743589743589745E-01    -0.253686028587765E+05    -0.157374468588931E+06    -0.712282621301845E+04     0.146867705574418E+06     0.000000000000000E+00    -0.249853790339778E+05    -0.157757692413730E+06
    -0.101430000000000E+02     0.743589743589745E-01    -0.265686571009931E+05    -0.164161372887164E+06    -0.752357801958261E+04     0.153176745433279E+06     0.000000000000000E+00    -0.261584901169382E+05    -0.164571539871219E+06
    -0.901600000000000E+01     0.743589743589745E-01    -0.277260206712167E+05    -0.170523871974955E+06    -0.764212985276401E+04     0.159042073623107E+06     0.000000000000000E+00    -0.273182005889444E+05    -0.170931692057227E+06
    -0.788900000000000E+01     0.743589743589745E-01    -0.288128166270514E+05    -0.176365297262865E+06    -0.747134583027992E+04     0.164379982165528E+06     0.000000000000000E+00    -0.284354687380401E+05    -0.176742645151876E+06
    -0.676200000000000E+01     0.743589743589745E-01    -0.298044476663831E+05    -0.181600352936682E+06    -0.701767528215850E+04     0.169121963006657E+06     0.000000000000000E+00    -0.294807040427034E+05    -0.181924096560362E+06
    -0.563500000000000E+01     0.743589743589745E-01    -0.306795961273797E+05    -0.186155115957422E+06    -0.629945459919994E+04     0.173213309031908E+06     0.000000000000000E+00    -0.304247766206838E+05    -0.186409935464118E+06
    -0.450800000000000E+01     0.743589743589745E-01    -0.314202239884911E+05    -0.189967036061331E+06    -0.534520908143753E+04     0.176611472510451E+06     0.000000000000000E+00    -0.312402212576380E+05    -0.190147038792184E+06
    -0.338100000000000E+01     0.743589743589745E-01    -0.320115728684488E+05    -0.192984935759880E+06    -0.419195478659891E+04     0.179284389585277E+06     0.000000000000000E+00    -0.319024828675370E+05    -0.193094025760792E+06
    -0.225400000000000E+01     0.743589743589745E-01    -0.324421640262661E+05    -0.195169010339772E+06    -0.288350037856712E+04     0.181208927155165E+06     0.000000000000000E+00    -0.323910847757818E+05    -0.195220089590256E+06
    -0.112700000000000E+01     0.743589743589745E-01    -0.327037983612385E+05    -0.196490827862935E+06    -0.146874897584177E+04     0.182369567411654E+06     0.000000000000000E+00    -0.326906285142993E+05    -0.196503997709874E+06
     0.000000000000000E+00     0.743589743589745E-01    -0.327915564129431E+05    -0.196933329166528E+06    -0.217111358956152E-09     0.182757412806272E+06     0.000000000000000E+00    -0.327915564129431E+05    -0.196933329166528E+06
    -0.227700000000000E+02     0.371794871794870E-01    -0.199673609098974E+05    -0.958729771524267E+05    -0.265985096291591E+04     0.877337867352239E+05     0.000000000000000E+00    -0.198742697589086E+05    -0.959660683034155E+05
    -0.216315000000000E+02     0.371794871794870E-01    -0.191594361231477E+05    -0.988930254508170E+05    -0.107442587720761E+04     0.908605692482719E+05     0.000000000000000E+00    -0.191449606500626E+05    -0.989075009239021E+05
    -0.204930000000000E+02     0.371794871794870E-01    -0.188076432725834E+05    -0.103139100049072E+06    -0.466030648290836E+03     0.951433106262259E+05     0.000000000000000E+00    -0.188050679828715E+05    -0.103141675338784E+06
    -0.193545000000000E+02     0.371794871794870E-01    -0.188465034272826E+05    -0.108393164014839E+06    -0.584932468659042E+03     0.100311828801300E+06     0.000000000000000E+00    -0.188426827220452E+05    -0.108396984720076E+06
    -0.182160000000000E+02     0.371794871794870E-01    -0.192140770579948E+05    -0.114448966195888E+06    -0.121355693893519E+04     0.106175013662041E+06     0.000000000000000E+00    -0.191986154829663E+05    -0.114464427770917E+06
    -0.170775000000000E+02     0.371794871794870E-01    -0.198519640371409E+05    -0.121112041220122E+06    -0.216470148964217E+04     0.112569857934918E+06     0.000000000000000E+00    -0.198057089567864E+05    -0.121158296300477E+06
    -0.159390000000000E+02     0.371794871794870E-01    -0.207053036388133E+05    -0.128199709495567E+06    -0.327974880297354E+04     0.119338725729085E+06     0.000000000000000E+00    -0.206053286018155E+05    -0.128299684532565E+06
    -0.148005000000000E+02     0.371794871794870E-01    -0.217227745387759E+05    -0.135541077210379E+06    -0.442688023456401E+04     0.126323893582576E+06     0.000000000000000E+00    -0.215508539297345E+05    -0.135712997819420E+06
    -0.136620000000000E+02     0.371794871794870E-01    -0.228565948144640E+05    -0.142977036332838E+06    -0.549928923526013E+04     0.133370218580015E+06     0.000000000000000E+00    -0.226053548075966E+05    -0.143228276339706E+06
    -0.125235000000000E+02     0.371794871794870E-01    -0.240625219449843E+05    -0.150360264611355E+06    -0.641339477289080E+04     0.140330188722969E+06     0.000000000000000E+00    -0.237376854680209E+05    -0.150685101088318E+06
    -0.113850000000000E+02     0.371794871794870E-01    -0.252998528111151E+05    -0.157555225574466E+06    -0.710705475403786E+04     0.147068481746632E+06     0.000000000000000E+00    -0.249190349736299E+05    -0.157936043411951E+06
    -0.102465000000000E+02     0.371794871794870E-01    -0.265314236953060E+05    -0.164438168530834E+06    -0.753777944580672E+04     0.153464990629863E+06     0.000000000000000E+00    -0.261206433628454E+05    -0.164848948863294E+06
    -0.910800000000000E+01     0.371794871794870E-01    -0.277236102816780E+05    -0.170897128569251E+06    -0.768094489759694E+04     0.159416223995908E+06     0.000000000000000E+00    -0.273127236359637E+05    -0.171308015214965E+06
    -0.796950000000000E+01     0.371794871794870E-01    -0.288463276560239E+05    -0.176831926558634E+06    -0.752800636287275E+04     0.164835377924519E+06     0.000000000000000E+00    -0.284643649198738E+05    -0.177213889294784E+06
    -0.683100000000000E+01     0.371794871794870E-01    -0.298730303058076E+05    -0.182154169148030E+06    -0.708471172093373E+04     0.169651471207529E+06     0.000000000000000E+00    -0.295441322778788E+05    -0.182483067175959E+06
    -0.569250000000000E+01     0.371794871794870E-01    -0.307807121201646E+05    -0.186787248766612E+06    -0.636931489868534E+04     0.173807906969901E+06     0.000000000000000E+00    -0.305211026443740E+05    -0.187046858242402E+06
    -0.455400000000000E+01     0.371794871794870E-01    -0.315499063899018E+05    -0.190666343623678E+06    -0.541078929240951E+04     0.177260756551761E+06     0.000000000000000E+00    -0.313661235880933E+05    -0.190850126425487E+06
    -0.341550000000000E+01     0.371794871794870E-01    -0.321646858074977E+05    -0.193738417708657E+06    -0.424704118953524E+04     0.179976993672817E+06     0.000000000000000E+00    -0.320531273668537E+05    -0.193849976149301E+06
    -0.227700000000000E+01     0.371794871794870E-01    -0.326126624671021E+05    -0.195962220791103E+06    -0.292312319040920E+04     0.181932850016618E+06     0.000000000000000E+00    -0.325603702246539E+05    -0.196014513033552E+06
    -0.113850000000000E+01     0.371794871794870E-01    -0.328849878645363E+05    -0.197308288420698E+06    -0.148944763006629E+04     0.183112418472361E+06     0.000000000000000E+00    -0.328714966365779E+05    -0.197321779648657E+06
     0.000000000000000E+00     0.371794871794870E-01    -0.329763528972932E+05    -0.197758941927251E+06    -0.226220679297298E-09     0.183506594718022E+06     0.000000000000000E+00    -0.329763528972932E+05    -0.197758941927251E+06
    -0.230000000000000E+02    -0.444089209850063E-15    -0.204934658730196E+05    -0.962275307825687E+05    -0.308375810924815E+04     0.879557439744009E+05     0.000000000000000E+00    -0.203681081554543E+05    -0.963528885001339E+05
    -0.218500000000000E+02    -0.444089209850063E-15    -0.194911988797920E+05    -0.990455101174278E+05    -0.127196813815455E+04     0.909079637940335E+05     0.000000000000000E+00    -0.194708669891183E+05    -0.990658420081014E+05
    -0.207000000000000E+02    -0.444089209850063E-15    -0.189871458155111E+05    -0.103149406972023E+06    -0.507608781951737E+03     0.950924394153648E+05     0.000000000000000E+00    -0.189840843803787E+05    -0.103152468407156E+06
    -0.195500000000000E+02    -0.444089209850063E-15    -0.189107568451873E+05    -0.108313364091540E+06    -0.527021873412289E+03     0.100209516165034E+06     0.000000000000000E+00    -0.189076501974916E+05    -0.108316470739236E+06
    -0.184000000000000E+02    -0.444089209850063E-15    -0.191952956384249E+05    -0.114323732721423E+06    -0.110036495992414E+04     0.106054371899818E+06     0.000000000000000E+00    -0.191825692537466E+05    -0.114336459106101E+06
    -0.172500000000000E+02    -0.444089209850063E-15    -0.197778393694223E+05    -0.120979072607376E+06    -0.202973265267860E+04     0.112457786381812E+06     0.000000000000000E+00    -0.197371465971321E+05    -0.121019765379667E+06
    -0.161000000000000E+02    -0.444089209850063E-15    -0.205992787169718E+05    -0.128090151995366E+06    -0.314727797585838E+04     0.119258411258811E+06     0.000000000000000E+00    -0.205072068867451E+05    -0.128182223825593E+06
    -0.149500000000000E+02    -0.444089209850063E-15    -0.216043178644598E+05    -0.135479947631618E+06    -0.431333371582563E+04     0.126294993768530E+06     0.000000000000000E+00    -0.214411729359587E+05    -0.135643092560119E+06
    -0.138000000000000E+02    -0.444089209850063E-15    -0.227414744998668E+05    -0.142983644762618E+06    -0.541453377030998E+04     0.133408357866413E+06     0.000000000000000E+00    -0.224981491452289E+05    -0.143226970117255E+06
    -0.126500000000000E+02    -0.444089209850063E-15    -0.239630798157673E+05    -0.150448637135111E+06    -0.636193449759658E+04     0.140446543360391E+06     0.000000000000000E+00    -0.236438945099673E+05    -0.150767822440911E+06
    -0.115000000000000E+02    -0.444089209850063E-15    -0.252252785093299E+05    -0.157734526996105E+06    -0.708913606571414E+04     0.147269704484727E+06     0.000000000000000E+00    -0.248470948890930E+05    -0.158112710616342E+06
    -0.103500000000000E+02    -0.444089209850063E-15    -0.264880287823169E+05    -0.164713125092867E+06    -0.755040380162297E+04     0.153753468387053E+06     0.000000000000000E+00    -0.260768190552481E+05    -0.165124334819935E+06
    -0.920000000000000E+01    -0.444089209850063E-15    -0.277151023410851E+05    -0.171268450672923E+06    -0.771878954040297E+04     0.159790567904955E+06     0.000000000000000E+00    -0.273012600502732E+05    -0.171682292963735E+06
    -0.805000000000000E+01    -0.444089209850063E-15    -0.288740843965851E+05    -0.177296731484060E+06    -0.758425297444176E+04     0.165291033138836E+06     0.000000000000000E+00    -0.284875431230665E+05    -0.177683272757579E+06
    -0.690000000000000E+01    -0.444089209850063E-15    -0.299363736643615E+05    -0.182706403774328E+06    -0.715178300262262E+04     0.170181354073852E+06     0.000000000000000E+00    -0.296023003184349E+05    -0.183040477120255E+06
    -0.575000000000000E+01    -0.444089209850063E-15    -0.308771823645530E+05    -0.187418112292033E+06    -0.643951907951261E+04     0.174403005112148E+06     0.000000000000000E+00    -0.306127309431879E+05    -0.187682563713398E+06
    -0.460000000000000E+01    -0.444089209850063E-15    -0.316755362218925E+05    -0.191364710285744E+06    -0.547687256455054E+04     0.177910653207469E+06     0.000000000000000E+00    -0.314879159158527E+05    -0.191552330591784E+06
    -0.345000000000000E+01    -0.444089209850063E-15    -0.323142744657065E+05    -0.194491259504290E+06    -0.430264807123503E+04     0.180670298495027E+06     0.000000000000000E+00    -0.322002029892959E+05    -0.194605330980701E+06
    -0.230000000000000E+01    -0.444089209850063E-15    -0.327800498299161E+05    -0.196755030196759E+06    -0.296316481631257E+04     0.182657534521927E+06     0.000000000000000E+00    -0.327265204419959E+05    -0.196808559584679E+06
    -0.115000000000000E+01    -0.444089209850063E-15    -0.330633285530360E+05    -0.198125501112501E+06    -0.151037796896554E+04     0.183856066184653E+06     0.000000000000000E+00    -0.330495092109084E+05    -0.198139320454629E+06
     0.000000000000000E+00    -0.444089209850063E-15    -0.331583903781751E+05    -0.198584359501125E+06    -0.235338575323138E-09     0.184256584619398E+06     0.000000000000000E+00    -0.331583903781752E+05    -0.198584359501125E+06
 zone I=   21 ,j=   21 ,f=point, T="    1"
     0.000000000000000E+00     0.371794871794872E+01    -0.141516720677080E+05    -0.115684703061145E+06     0.355782077278631E-09     0.109298162672964E+06     0.000000000000000E+00    -0.141516720677080E+05    -0.115684703061145E+06
     0.520000000000000E+00     0.376923076923077E+01    -0.139909324381872E+05    -0.114430656041857E+06     0.667060077528300E+03     0.108122451704360E+06     0.000000000000000E+00    -0.139865024227906E+05    -0.114435086057254E+06
     0.104000000000000E+01     0.382051282051282E+01    -0.138626494816929E+05    -0.112948758506221E+06     0.133352478948609E+04     0.106720011784469E+06     0.000000000000000E+00    -0.138447058324052E+05    -0.112966702155509E+06
     0.156000000000000E+01     0.387179487179487E+01    -0.137679255678758E+05    -0.111238329580805E+06     0.199322584099446E+04     0.105090054468378E+06     0.000000000000000E+00    -0.137271820287734E+05    -0.111279073119907E+06
     0.208000000000000E+01     0.392307692307692E+01    -0.137073252958876E+05    -0.109299463966801E+06     0.263989625068853E+04     0.103232589038450E+06     0.000000000000000E+00    -0.136344767813011E+05    -0.109372312481387E+06
     0.260000000000000E+01     0.397435897435897E+01    -0.136808364207155E+05    -0.107133048725915E+06     0.326719843363530E+04     0.101148452565633E+06     0.000000000000000E+00    -0.135667506246397E+05    -0.107247134521990E+06
     0.312000000000000E+01     0.402564102564102E+01    -0.136878307795175E+05    -0.104740780066258E+06     0.386875228425119E+04     0.988393412553222E+05     0.000000000000000E+00    -0.135237469048489E+05    -0.104904863940927E+06
     0.364000000000000E+01     0.407692307692308E+01    -0.137270252179565E+05    -0.102125180128241E+06     0.443816325921955E+04     0.963078428472878E+05     0.000000000000000E+00    -0.135047593683184E+05    -0.102347445977879E+06
     0.416000000000000E+01     0.412820512820513E+01    -0.137964425165358E+05    -0.992896137704640E+05     0.496905046040818E+04     0.935574698640413E+05     0.000000000000000E+00    -0.135085995398638E+05    -0.995774567471360E+05
     0.468000000000000E+01     0.417948717948718E+01    -0.138933723169334E+05    -0.962383053556067E+05     0.545507471778684E+04     0.905926935526793E+05     0.000000000000000E+00    -0.135335641638838E+05    -0.965981135086562E+05
     0.520000000000000E+01     0.423076923076923E+01    -0.140143320483370E+05    -0.929763555363230E+05     0.588996667234482E+04     0.874189784580644E+05     0.000000000000000E+00    -0.135774030171516E+05    -0.934132845675084E+05
     0.572000000000000E+01     0.428205128205128E+01    -0.141550278537787E+05    -0.895097580411310E+05     0.626755485900839E+04     0.840428177276196E+05     0.000000000000000E+00    -0.136372874454033E+05    -0.900274984495063E+05
     0.624000000000000E+01     0.433333333333333E+01    -0.143103155164700E+05    -0.858454164603047E+05     0.658179378955835E+04     0.804717695263324E+05     0.000000000000000E+00    -0.137097800303743E+05    -0.864459519464003E+05
     0.676000000000000E+01     0.438461538461538E+01    -0.144741613861362E+05    -0.819911610317662E+05     0.682679203554757E+04     0.767144954141544E+05     0.000000000000000E+00    -0.137908058613713E+05    -0.826745165565311E+05
     0.728000000000000E+01     0.443589743589744E+01    -0.146396033053518E+05    -0.779557654269769E+05     0.699684031121848E+04     0.727808023454674E+05     0.000000000000000E+00    -0.138756259676963E+05    -0.787197427646323E+05
     0.780000000000000E+01     0.448717948717949E+01    -0.147987115358745E+05    -0.737489635368293E+05     0.708643955642061E+04     0.686816913390151E+05     0.000000000000000E+00    -0.139588135658712E+05    -0.745888615068326E+05
     0.832000000000000E+01     0.453846153846154E+01    -0.149425496849808E+05    -0.693814662575388E+05     0.709032901952809E+04     0.644294182899357E+05     0.000000000000000E+00    -0.140342338857826E+05    -0.702897820567370E+05
     0.884000000000000E+01     0.458974358974359E+01    -0.150611356318003E+05    -0.648649782765351E+05     0.700351434035719E+04     0.600375767091324E+05     0.000000000000000E+00    -0.140950284506082E+05    -0.658310854577272E+05
     0.936000000000000E+01     0.464102564102564E+01    -0.151434024536505E+05    -0.602122148583542E+05     0.682129563308383E+04     0.555212200526780E+05     0.000000000000000E+00    -0.141336047619115E+05    -0.612220125500932E+05
     0.988000000000000E+01     0.469230769230769E+01    -0.151771593523719E+05    -0.554369186305296E+05     0.653929556916110E+04     0.508970561508008E+05     0.000000000000000E+00    -0.141416322903110E+05    -0.564724456925905E+05
     0.104000000000000E+02     0.474358974358974E+01    -0.151490525806625E+05    -0.505538763694843E+05     0.615348746023678E+04     0.461837753173669E+05     0.000000000000000E+00    -0.141100452437912E+05    -0.515928837063556E+05
     0.000000000000000E+00     0.356923076923077E+01    -0.146770472547420E+05    -0.118993373933156E+06     0.350504518507297E-09     0.112376008933828E+06     0.000000000000000E+00    -0.146770472547421E+05    -0.118993373933156E+06
     0.540000000000000E+00     0.361794871794872E+01    -0.145161756734369E+05    -0.117787670535133E+06     0.684381721222312E+03     0.111248520455974E+06     0.000000000000000E+00    -0.145116404648311E+05    -0.117792205743739E+06
     0.108000000000000E+01     0.366666666666667E+01    -0.143878121529874E+05    -0.116338232931498E+06     0.136711508490386E+04     0.109878787532036E+06     0.000000000000000E+00    -0.143694829721735E+05    -0.116356562112312E+06
     0.162000000000000E+01     0.371538461538461E+01    -0.142931745954089E+05    -0.114644541303331E+06     0.204142033420325E+04     0.108266030851554E+06     0.000000000000000E+00    -0.142516637125564E+05    -0.114686052186184E+06
     0.216000000000000E+01     0.376410256410256E+01    -0.142329044382995E+05    -0.112706969760002E+06     0.270043389976869E+04     0.106410366510262E+06     0.000000000000000E+00    -0.141589066040095E+05    -0.112780967594292E+06
     0.270000000000000E+01     0.381282051282051E+01    -0.142070238169713E+05    -0.110526805015217E+06     0.333724379454118E+04     0.104312840963016E+06     0.000000000000000E+00    -0.140915349907215E+05    -0.110642293841466E+06
     0.324000000000000E+01     0.386153846153846E+01    -0.142148927265826E+05    -0.108106265063064E+06     0.394492500855733E+04     0.101975467932931E+06     0.000000000000000E+00    -0.140494349570024E+05    -0.108271722832644E+06
     0.378000000000000E+01     0.391025641025641E+01    -0.142551661842702E+05    -0.105448517854062E+06     0.451657490375222E+04     0.994012670002173E+05     0.000000000000000E+00    -0.140320177500380E+05    -0.105671666288294E+06
     0.432000000000000E+01     0.395897435897436E+01    -0.143257513912806E+05    -0.102557699971200E+06     0.504534860876224E+04     0.965943036157432E+05     0.000000000000000E+00    -0.140381815643984E+05    -0.102845269798083E+06
     0.486000000000000E+01     0.400769230769231E+01    -0.144237648951024E+05    -0.994389353059918E+05     0.552449441372793E+04     0.935597303322718E+05     0.000000000000000E+00    -0.140662729569626E+05    -0.997964272441316E+05
     0.540000000000000E+01     0.405641025641026E+01    -0.145454897515982E+05    -0.960983537345135E+05     0.594738916509683E+04     0.903038291372521E+05     0.000000000000000E+00    -0.141140481770117E+05    -0.965297953091000E+05
     0.594000000000000E+01     0.410512820512820E+01    -0.146863326871362E+05    -0.925431097934550E+05     0.630757366042628E+04     0.868340549332863E+05     0.000000000000000E+00    -0.141786347099684E+05    -0.930508077706229E+05
     0.648000000000000E+01     0.415384615384615E+01    -0.148407812607226E+05    -0.887814013561640E+05     0.659878804318635E+04     0.831590804937280E+05     0.000000000000000E+00    -0.142564933387739E+05    -0.893656892781127E+05
     0.702000000000000E+01     0.420256410256410E+01    -0.150023610261330E+05    -0.848224883086918E+05     0.681500719756257E+04     0.792888437032798E+05     0.000000000000000E+00    -0.143433810122759E+05    -0.854814683225489E+05
     0.756000000000000E+01     0.425128205128205E+01    -0.151635926940446E+05    -0.806767112258394E+05     0.695047614325887E+04     0.752345987198624E+05     0.000000000000000E+00    -0.144343147513809E+05    -0.814059891685032E+05
     0.810000000000000E+01     0.430000000000000E+01    -0.153159492941683E+05    -0.763555100472038E+05     0.699974543030035E+04     0.710089741187962E+05     0.000000000000000E+00    -0.145235366730711E+05    -0.771479226683010E+05
     0.864000000000000E+01     0.434871794871795E+01    -0.154498133373801E+05    -0.718714427532235E+05     0.695770653383617E+04     0.666260435670408E+05     0.000000000000000E+00    -0.146044798715387E+05    -0.727167762190649E+05
     0.918000000000000E+01     0.439743589743590E+01    -0.155544339778535E+05    -0.672382040412243E+05     0.681962724894237E+04     0.621014189930923E+05     0.000000000000000E+00    -0.146697341583956E+05    -0.681229038606822E+05
     0.972000000000000E+01     0.444615384615385E+01    -0.156178841751911E+05    -0.624706440014659E+05     0.658118708542470E+04     0.574523842504658E+05     0.000000000000000E+00    -0.147110090802535E+05    -0.633775190964036E+05
     0.102600000000000E+02     0.449487179487179E+01    -0.156270178565568E+05    -0.575847867931871E+05     0.623851266262150E+04     0.526981023030989E+05     0.000000000000000E+00    -0.147190881716746E+05    -0.584927164780694E+05
     0.108000000000000E+02     0.454358974358974E+01    -0.155674270788075E+05    -0.525978493206522E+05     0.578821310420649E+04     0.478599580863772E+05     0.000000000000000E+00    -0.146837605571435E+05    -0.534815158423161E+05
     0.000000000000000E+00     0.342051282051282E+01    -0.152298807222311E+05    -0.122304156395197E+06     0.343542121306457E-09     0.115445130796505E+06     0.000000000000000E+00    -0.152298807222311E+05    -0.122304156395197E+06
     0.560000000000000E+00     0.346666666666667E+01    -0.150695333348526E+05    -0.121146713879553E+06     0.701680847025857E+03     0.114365509414167E+06     0.000000000000000E+00    -0.150648920494506E+05    -0.121151355164955E+06
     0.112000000000000E+01     0.351282051282051E+01    -0.149413856158283E+05    -0.119729251610522E+06     0.140059369479403E+04     0.113027884902899E+06     0.000000000000000E+00    -0.149226686360144E+05    -0.119747968590336E+06
     0.168000000000000E+01     0.355897435897436E+01    -0.148467605600184E+05    -0.118051436060839E+06     0.208931170047287E+04     0.111431513138504E+06     0.000000000000000E+00    -0.148044811205497E+05    -0.118093715500308E+06
     0.224000000000000E+01     0.360512820512820E+01    -0.147863668905778E+05    -0.116113957025442E+06     0.276034308301766E+04     0.109576651591668E+06     0.000000000000000E+00    -0.147112259761555E+05    -0.116189097939864E+06
     0.280000000000000E+01     0.365128205128205E+01    -0.147602524330598E+05    -0.113918548206701E+06     0.340617507699664E+04     0.107464599915679E+06     0.000000000000000E+00    -0.146433850486498E+05    -0.114035415591111E+06
     0.336000000000000E+01     0.369743589743590E+01    -0.147677574895216E+05    -0.111468007799646E+06     0.401931788641670E+04     0.105097743391008E+06     0.000000000000000E+00    -0.146009833332897E+05    -0.111634781955878E+06
     0.392000000000000E+01     0.374358974358974E+01    -0.148074682126287E+05    -0.108766219077198E+06     0.459234863854908E+04     0.102479598914504E+06     0.000000000000000E+00    -0.145835452217572E+05    -0.108990142068069E+06
     0.448000000000000E+01     0.378974358974359E+01    -0.148771699797597E+05    -0.105818170975392E+06     0.511795533775507E+04     0.996148632441642E+05     0.000000000000000E+00    -0.145900494471819E+05    -0.106105291507970E+06
     0.504000000000000E+01     0.383589743589744E+01    -0.149738007671113E+05    -0.102629978678610E+06     0.558898081931166E+04     0.965094632630119E+05     0.000000000000000E+00    -0.146188829429717E+05    -0.102984896502750E+06
     0.560000000000000E+01     0.388205128205128E+01    -0.150934045238027E+05    -0.992089042048079E+05     0.599846670323728E+04     0.931706081255300E+05     0.000000000000000E+00    -0.146677938047151E+05    -0.996345149238954E+05
     0.616000000000000E+01     0.392820512820513E+01    -0.152310845459806E+05    -0.955633769907418E+05     0.633969734811750E+04     0.896068433283598E+05     0.000000000000000E+00    -0.147338434915567E+05    -0.960606180451657E+05
     0.672000000000000E+01     0.397435897435897E+01    -0.153809568509239E+05    -0.917030144771992E+05     0.660624380493064E+04     0.858281070553958E+05     0.000000000000000E+00    -0.148133583028019E+05    -0.922706130253211E+05
     0.728000000000000E+01     0.402051282051282E+01    -0.155361035511483E+05    -0.876386426942252E+05     0.679200777087357E+04     0.818457896750794E+05     0.000000000000000E+00    -0.149018799778571E+05    -0.882728662675164E+05
     0.784000000000000E+01     0.406666666666667E+01    -0.156885262285113E+05    -0.833823168463520E+05     0.689126554318731E+04     0.776727981690517E+05     0.000000000000000E+00    -0.149941149199955E+05    -0.840767281548677E+05
     0.840000000000000E+01     0.411282051282051E+01    -0.158290993083169E+05    -0.789473418978262E+05     0.689871197298278E+04     0.733236288196036E+05     0.000000000000000E+00    -0.150838808979605E+05    -0.796925603081825E+05
     0.896000000000000E+01     0.415897435897436E+01    -0.159475234334201E+05    -0.743482931578377E+05     0.680950441906649E+04     0.688144541726062E+05     0.000000000000000E+00    -0.151640488620203E+05    -0.751317677292375E+05
     0.952000000000000E+01     0.420512820512820E+01    -0.160322788383321E+05    -0.696010368657478E+05     0.661930670176618E+04     0.641632350392704E+05     0.000000000000000E+00    -0.152264751712022E+05    -0.704068405328777E+05
     0.100800000000000E+02     0.425128205128205E+01    -0.160705787233246E+05    -0.647227507763173E+05     0.632433305675658E+04     0.593898768550102E+05     0.000000000000000E+00    -0.152619149006324E+05    -0.655314145990095E+05
     0.106400000000000E+02     0.429743589743590E+01    -0.160483226285350E+05    -0.597319447449352E+05     0.592139208888505E+04     0.545164655357987E+05     0.000000000000000E+00    -0.152598973960460E+05    -0.605203699774243E+05
     0.112000000000000E+02     0.434358974358974E+01    -0.159500498080707E+05    -0.546484813128462E+05     0.540793072599729E+04     0.495676481590228E+05     0.000000000000000E+00    -0.152085247834329E+05    -0.553900063374840E+05
     0.000000000000000E+00     0.327179487179487E+01    -0.158104445472893E+05    -0.125616890363655E+06     0.334877735899145E-09     0.118505334994336E+06     0.000000000000000E+00    -0.158104445472893E+05    -0.125616890363655E+06
     0.580000000000000E+00     0.331538461538461E+01    -0.156513240157043E+05    -0.124507625594935E+06     0.719055993430171E+03     0.117473208471915E+06     0.000000000000000E+00    -0.156465744609618E+05    -0.124512375149678E+06
     0.116000000000000E+01     0.335897435897436E+01    -0.155236993874610E+05    -0.123121664447313E+06     0.143416270419571E+04     0.116167104896229E+06     0.000000000000000E+00    -0.155045869685931E+05    -0.123140776866181E+06
     0.174000000000000E+01     0.340256410256410E+01    -0.154289864837897E+05    -0.121458885772326E+06     0.213720932619367E+04     0.114586343170408E+06     0.000000000000000E+00    -0.153859249564331E+05    -0.121501947299683E+06
     0.232000000000000E+01     0.344615384615385E+01    -0.153679507189860E+05    -0.119520332561292E+06     0.282004330739539E+04     0.112731358356542E+06     0.000000000000000E+00    -0.152916507589552E+05    -0.119596632521323E+06
     0.290000000000000E+01     0.348974358974359E+01    -0.153406567204466E+05    -0.117308234428944E+06     0.347452424824119E+04     0.110603748647364E+06     0.000000000000000E+00    -0.152224001686039E+05    -0.117426490980786E+06
     0.348000000000000E+01     0.353333333333333E+01    -0.153464179487046E+05    -0.114826030097068E+06     0.409257780003481E+04     0.108206326347385E+06     0.000000000000000E+00    -0.151783338516264E+05    -0.114994114194146E+06
     0.406000000000000E+01     0.357692307692308E+01    -0.153837463174654E+05    -0.112078389878143E+06     0.466624956333774E+04     0.105543172521219E+06     0.000000000000000E+00    -0.151590863766620E+05    -0.112303049818946E+06
     0.464000000000000E+01     0.362051282051282E+01    -0.154503018136424E+05    -0.109071238158980E+06     0.518775898636370E+04     0.102619694994789E+06     0.000000000000000E+00    -0.151637130310721E+05    -0.109357826941551E+06
     0.522000000000000E+01     0.366410256410256E+01    -0.155428421173925E+05    -0.105811775884359E+06     0.564955326337294E+04     0.994426894567094E+05     0.000000000000000E+00    -0.151906345463508E+05    -0.106163983455401E+06
     0.580000000000000E+01     0.370769230769231E+01    -0.156571722221517E+05    -0.102308503040665E+06     0.604436123306672E+04     0.960204035227147E+05     0.000000000000000E+00    -0.152375797641760E+05    -0.102728095498640E+06
     0.638000000000000E+01     0.375128205128205E+01    -0.157880940546710E+05    -0.985712411395292E+05     0.636524727698163E+04     0.923626038294784E+05     0.000000000000000E+00    -0.153015261243050E+05    -0.990578090698952E+05
     0.696000000000000E+01     0.379487179487179E+01    -0.159293560950518E+05    -0.946111557014683E+05     0.660566521788405E+04     0.884806465728504E+05     0.000000000000000E+00    -0.153786376019709E+05    -0.951618741945493E+05
     0.754000000000000E+01     0.383846153846154E+01    -0.160736029967816E+05    -0.904407787395194E+05     0.675951221816447E+04     0.843875524968736E+05     0.000000000000000E+00    -0.154641992901432E+05    -0.910501824461578E+05
     0.812000000000000E+01     0.388205128205128E+01    -0.162123252067697E+05    -0.860740312428801E+05     0.682118267823195E+04     0.800980883419359E+05     0.000000000000000E+00    -0.155525470742146E+05    -0.867338093754351E+05
     0.870000000000000E+01     0.392564102564103E+01    -0.163358085853829E+05    -0.815262456605467E+05     0.678562213490850E+04     0.756288584676495E+05     0.000000000000000E+00    -0.156369895295685E+05    -0.822250647163610E+05
     0.928000000000000E+01     0.396923076923077E+01    -0.164330840264810E+05    -0.768141883849520E+05     0.664838115982342E+04     0.709984133051106E+05     0.000000000000000E+00    -0.157097168014508E+05    -0.775375556099822E+05
     0.986000000000000E+01     0.401282051282051E+01    -0.164918770774526E+05    -0.719560822356041E+05     0.640566925780779E+04     0.662273864270019E+05     0.000000000000000E+00    -0.157616868448660E+05    -0.726862724681906E+05
     0.104400000000000E+02     0.405641025641026E+01    -0.164985575592505E+05    -0.669716289427242E+05     0.605440876528876E+04     0.613386811589648E+05     0.000000000000000E+00    -0.157824710478744E+05    -0.676877154541003E+05
     0.110200000000000E+02     0.410000000000000E+01    -0.164380891864277E+05    -0.618820316308851E+05     0.559228874868402E+04     0.563577442790870E+05     0.000000000000000E+00    -0.157600247319219E+05    -0.625600960853909E+05
     0.116000000000000E+02     0.414358974358974E+01    -0.162939791871728E+05    -0.567100173026492E+05     0.501781890279615E+04     0.513129954125560E+05     0.000000000000000E+00    -0.156803138562942E+05    -0.573236826335278E+05
     0.000000000000000E+00     0.312307692307692E+01    -0.164188469185810E+05    -0.128931407573124E+06     0.324500350428587E-09     0.121556494474720E+06     0.000000000000000E+00    -0.164188469185810E+05    -0.128931407573124E+06
     0.600000000000000E+00     0.316410256410256E+01    -0.162616964813752E+05    -0.127870236357192E+06     0.736608762135565E+03     0.120571476408227E+06     0.000000000000000E+00    -0.162568351254586E+05    -0.127875097713109E+06
     0.120000000000000E+01     0.320512820512820E+01    -0.161349072958969E+05    -0.126515311885296E+06     0.146803049797587E+04     0.119296319669674E+06     0.000000000000000E+00    -0.161153863267288E+05    -0.126534832854464E+06
     0.180000000000000E+01     0.324615384615385E+01    -0.160399741176584E+05    -0.124866752297824E+06     0.218543208255484E+04     0.117730435590167E+06     0.000000000000000E+00    -0.159961045028063E+05    -0.124910621912676E+06
     0.240000000000000E+01     0.328717948717949E+01    -0.159777077472338E+05    -0.122925992470703E+06     0.287996646262438E+04     0.115874474359133E+06     0.000000000000000E+00    -0.159002104688146E+05    -0.123003489749122E+06
     0.300000000000000E+01     0.332820512820513E+01    -0.159481809972152E+05    -0.120695808352554E+06     0.354283803243830E+04     0.113730379133093E+06     0.000000000000000E+00    -0.158284897388706E+05    -0.120815499610899E+06
     0.360000000000000E+01     0.336923076923077E+01    -0.159506746591678E+05    -0.118180341301850E+06     0.416536800953584E+04     0.111301445583846E+06     0.000000000000000E+00    -0.157812367453305E+05    -0.118349779215688E+06
     0.420000000000000E+01     0.341025641025641E+01    -0.159836234705862E+05    -0.115385122424077E+06     0.473905981052526E+04     0.108592386513963E+06     0.000000000000000E+00    -0.157581955807642E+05    -0.115610550313899E+06
     0.480000000000000E+01     0.345128205128205E+01    -0.160445620818500E+05    -0.112317096908886E+06     0.525566442686740E+04     0.105609401200529E+06     0.000000000000000E+00    -0.157584973636588E+05    -0.112603161627077E+06
     0.540000000000000E+01     0.349230769230769E+01    -0.161300710231796E+05    -0.108984648367261E+06     0.570724580065924E+04     0.102360249199753E+06     0.000000000000000E+00    -0.157805942227537E+05    -0.109334125167687E+06
     0.600000000000000E+01     0.353333333333333E+01    -0.162357226715918E+05    -0.105397623168667E+06     0.608624620041745E+04     0.988543284773004E+05     0.000000000000000E+00    -0.158221897263568E+05    -0.105811156113902E+06
     0.660000000000000E+01     0.357435897435897E+01    -0.163560272178558E+05    -0.101567354778215E+06     0.638555159686201E+04     0.951027579588813E+05     0.000000000000000E+00    -0.158801653130518E+05    -0.102043216683019E+06
     0.720000000000000E+01     0.361538461538461E+01    -0.164843786334488E+05    -0.975066880938195E+05     0.659855703869969E+04     0.911184649843439E+05     0.000000000000000E+00    -0.159505018425598E+05    -0.980405648847085E+05
     0.780000000000000E+01     0.365641025641026E+01    -0.166130006375121E+05    -0.932300037833523E+05     0.671923202840770E+04     0.869162788003059E+05     0.000000000000000E+00    -0.160281946651230E+05    -0.938148097557413E+05
     0.840000000000000E+01     0.369743589743590E+01    -0.167328926638064E+05    -0.887532426218056E+05     0.674218589801720E+04     0.825130323190124E+05     0.000000000000000E+00    -0.161071594010059E+05    -0.893789758846060E+05
     0.900000000000000E+01     0.373846153846154E+01    -0.168337758276677E+05    -0.840939298284480E+05     0.666273318489687E+04     0.779276762125483E+05     0.000000000000000E+00    -0.161801235597111E+05    -0.847475820964046E+05
     0.960000000000000E+01     0.377948717948718E+01    -0.169040388929635E+05    -0.792711994039833E+05     0.647695900753650E+04     0.731814125443068E+05     0.000000000000000E+00    -0.162384955257246E+05    -0.799367427712222E+05
     0.102000000000000E+02     0.382051282051282E+01    -0.169306842390479E+05    -0.743058184677082E+05     0.618178444133053E+04     0.682978605374633E+05     0.000000000000000E+00    -0.162721959827107E+05    -0.749643067240453E+05
     0.108000000000000E+02     0.386153846153846E+01    -0.168992738277181E+05    -0.692202115946709E+05     0.577503189436164E+04     0.633032765274197E+05     0.000000000000000E+00    -0.162694249530149E+05    -0.698500604693741E+05
     0.114000000000000E+02     0.390256410256410E+01    -0.167938751701693E+05    -0.640384851528296E+05     0.525549048318427E+04     0.582268669843532E+05     0.000000000000000E+00    -0.162163150105887E+05    -0.646160453124101E+05
     0.120000000000000E+02     0.394358974358974E+01    -0.165970072939513E+05    -0.587864516402100E+05     0.462298140860825E+04     0.531012641301236E+05     0.000000000000000E+00    -0.160963767108543E+05    -0.592870822233070E+05
     0.000000000000000E+00     0.297435897435897E+01    -0.170550148629541E+05    -0.132247531973542E+06     0.312405242843058E-09     0.124598553850640E+06     0.000000000000000E+00    -0.170550148629541E+05    -0.132247531973542E+06
     0.620000000000000E+00     0.301282051282051E+01    -0.169006109305145E+05    -0.131234368458238E+06     0.754443528489888E+03     0.123660246916888E+06     0.000000000000000E+00    -0.168956328709378E+05    -0.131239346517815E+06
     0.124000000000000E+01     0.305128205128205E+01    -0.167749673377391E+05    -0.129910025491453E+06     0.150241111925717E+04     0.122415479149583E+06     0.000000000000000E+00    -0.167550191335551E+05    -0.129929973695637E+06
     0.186000000000000E+01     0.308974358974359E+01    -0.166796424862259E+05    -0.128274888213049E+06     0.223430724134517E+04     0.120863785025666E+06     0.000000000000000E+00    -0.166349261610233E+05    -0.128319604538251E+06
     0.248000000000000E+01     0.312820512820513E+01    -0.166154809148328E+05    -0.126330823195472E+06     0.294055517300687E+04     0.119006068364994E+06     0.000000000000000E+00    -0.165367256363822E+05    -0.126409578473922E+06
     0.310000000000000E+01     0.316666666666667E+01    -0.165825557913511E+05    -0.124081204550888E+06     0.361167554406999E+04     0.116844664332422E+06     0.000000000000000E+00    -0.164613495303582E+05    -0.124202410811881E+06
     0.372000000000000E+01     0.320512820512820E+01    -0.165801114041800E+05    -0.121530940038326E+06     0.423836487830189E+04     0.114383408615100E+06     0.000000000000000E+00    -0.164092262825452E+05    -0.121701825159961E+06
     0.434000000000000E+01     0.324358974358974E+01    -0.166065056540010E+05    -0.118686497170815E+06     0.481157413577431E+04     0.111627713366285E+06     0.000000000000000E+00    -0.163802121700388E+05    -0.118912790654777E+06
     0.496000000000000E+01     0.328205128205128E+01    -0.166591525454513E+05    -0.115555929322523E+06     0.532258725522826E+04     0.108584649542547E+06     0.000000000000000E+00    -0.163735178782057E+05    -0.115841563989769E+06
     0.558000000000000E+01     0.332051282051282E+01    -0.167344646787990E+05    -0.112148901835900E+06     0.576309969643882E+04     0.105263035339471E+06     0.000000000000000E+00    -0.163876301232726E+05    -0.112495736391426E+06
     0.620000000000000E+01     0.335897435897436E+01    -0.168277957416164E+05    -0.108476718128813E+06     0.612529698257994E+04     0.101673530574586E+06     0.000000000000000E+00    -0.164202279205976E+05    -0.108884285949832E+06
     0.682000000000000E+01     0.339743589743590E+01    -0.169333830004547E+05    -0.104552345801688E+06     0.640193324258931E+04     0.978287371131182E+05     0.000000000000000E+00    -0.164680926926419E+05    -0.105017636109501E+06
     0.744000000000000E+01     0.343589743589744E+01    -0.170442897925178E+05    -0.100390442744649E+06     0.658640975353315E+04     0.937433058451820E+05     0.000000000000000E+00    -0.165270107780042E+05    -0.100907721759163E+06
     0.806000000000000E+01     0.347435897435897E+01    -0.171523480173370E+05    -0.960073832446572E+05     0.667285348297105E+04     0.894340514075244E+05     0.000000000000000E+00    -0.165916658868141E+05    -0.965680653751801E+05
     0.868000000000000E+01     0.351282051282051E+01    -0.172481006284445E+05    -0.914212840926503E+05     0.665619563132077E+04     0.849200769763760E+05     0.000000000000000E+00    -0.166555173883416E+05    -0.920138673327532E+05
     0.930000000000000E+01     0.355128205128205E+01    -0.173207441250481E+05    -0.866520306906823E+05     0.653225017422310E+04     0.802229133438267E+05     0.000000000000000E+00    -0.167106575564481E+05    -0.872621172592823E+05
     0.992000000000000E+01     0.358974358974359E+01    -0.173580710437052E+05    -0.817213031590625E+05     0.629779240490666E+04     0.753666796527513E+05     0.000000000000000E+00    -0.167476362161595E+05    -0.823317379866081E+05
     0.105400000000000E+02     0.362820512820513E+01    -0.173464124499969E+05    -0.766526024434956E+05     0.595063747655272E+04     0.703782785241835E+05     0.000000000000000E+00    -0.167552331247593E+05    -0.772437817687332E+05
     0.111600000000000E+02     0.366666666666667E+01    -0.172705804302022E+05    -0.714712764222203E+05     0.548971894466004E+04     0.652876475008284E+05     0.000000000000000E+00    -0.167201440685090E+05    -0.720217127839135E+05
     0.117800000000000E+02     0.370512820512820E+01    -0.171138105829724E+05    -0.662045460131492E+05     0.491516730940969E+04     0.601281046958475E+05     0.000000000000000E+00    -0.166265207094548E+05    -0.666918358866668E+05
     0.124000000000000E+02     0.374358974358974E+01    -0.168577045110048E+05    -0.608815312810082E+05     0.422838855802986E+04     0.549368546367648E+05     0.000000000000000E+00    -0.164552564135440E+05    -0.612839793784689E+05
     0.000000000000000E+00     0.282564102564102E+01    -0.177186769720734E+05    -0.135565080127318E+06     0.298594132780725E-09     0.127631534504986E+06     0.000000000000000E+00    -0.177186769720734E+05    -0.135565080127318E+06
     0.640000000000000E+00     0.286153846153846E+01    -0.175678202561893E+05    -0.134599836265901E+06     0.772667151926982E+03     0.126739534261856E+06     0.000000000000000E+00    -0.175627191861821E+05    -0.134604937335908E+06
     0.128000000000000E+01     0.289743589743590E+01    -0.174436215360078E+05    -0.133305628540477E+06     0.153752362784575E+04     0.125524617253756E+06     0.000000000000000E+00    -0.174232217275192E+05    -0.133326028348965E+06
     0.192000000000000E+01     0.293333333333333E+01    -0.173476864325748E+05    -0.131683137584055E+06     0.228416939075389E+04     0.123986472885937E+06     0.000000000000000E+00    -0.173020719790107E+05    -0.131728752037619E+06
     0.256000000000000E+01     0.296923076923077E+01    -0.172808816354525E+05    -0.129734702549707E+06     0.300226114924203E+04     0.122126297712704E+06     0.000000000000000E+00    -0.172007851435147E+05    -0.129814799041645E+06
     0.320000000000000E+01     0.300512820512820E+01    -0.172432741840259E+05    -0.127464348860760E+06     0.368160592133156E+04     0.119946866092735E+06     0.000000000000000E+00    -0.171204380251718E+05    -0.127587185019614E+06
     0.384000000000000E+01     0.304102564102564E+01    -0.172340707488099E+05    -0.124877815960979E+06     0.431225459831216E+04     0.117452610093146E+06     0.000000000000000E+00    -0.170615963309118E+05    -0.125050290378877E+06
     0.448000000000000E+01     0.307692307692308E+01    -0.172515569127557E+05    -0.121982585064759E+06     0.488459550857933E+04     0.114649708182065E+06     0.000000000000000E+00    -0.170242355667500E+05    -0.122209906410764E+06
     0.512000000000000E+01     0.311282051282051E+01    -0.172930364525581E+05    -0.118787906907313E+06     0.538944798147180E+04     0.111546182281303E+06     0.000000000000000E+00    -0.170076554564323E+05    -0.119073287903438E+06
     0.576000000000000E+01     0.314871794871795E+01    -0.173547706199616E+05    -0.115304829494858E+06     0.581815591110911E+04     0.108152002826904E+06     0.000000000000000E+00    -0.170103875851906E+05    -0.115649212529629E+06
     0.640000000000000E+01     0.318461538461538E+01    -0.174319174230675E+05    -0.111546225854807E+06     0.616268132022908E+04     0.104479201627427E+06     0.000000000000000E+00    -0.170300956285886E+05    -0.111948047649286E+06
     0.704000000000000E+01     0.322051282051282E+01    -0.175184709076410E+05    -0.107526821785953E+06     0.641569792402526E+04     0.100541992553553E+06     0.000000000000000E+00    -0.170634670008093E+05    -0.107981825692785E+06
     0.768000000000000E+01     0.325641025641026E+01    -0.176072004384173E+05    -0.103263223608661E+06     0.657068469398450E+04     0.963569004969517E+05     0.000000000000000E+00    -0.171060939424716E+05    -0.103764330104607E+06
     0.832000000000000E+01     0.329230769230769E+01    -0.176895899804088E+05    -0.987739459150538E+05     0.662201942172437E+04     0.919428996985937E+05     0.000000000000000E+00    -0.171523407906282E+05    -0.993111951048345E+05
     0.896000000000000E+01     0.332820512820513E+01    -0.177557773802119E+05    -0.940794393192009E+05     0.656507228283074E+04     0.873215636290392E+05     0.000000000000000E+00    -0.171951921412224E+05    -0.946400245581904E+05
     0.960000000000000E+01     0.336410256410256E+01    -0.177944936473134E+05    -0.892021182073080E+05     0.639629940069519E+04     0.825172303772853E+05     0.000000000000000E+00    -0.172260733333743E+05    -0.897705385212470E+05
     0.102400000000000E+02     0.340000000000000E+01    -0.177930022353976E+05    -0.841663884879036E+05     0.611333641035256E+04     0.775571904296010E+05     0.000000000000000E+00    -0.172346293116007E+05    -0.847247614117005E+05
     0.108800000000000E+02     0.343589743589744E+01    -0.177370383236531E+05    -0.789986753420288E+05     0.571509202231841E+04     0.724719085763672E+05     0.000000000000000E+00    -0.172084390050578E+05    -0.795272746606242E+05
     0.115200000000000E+02     0.347179487179487E+01    -0.176107480980793E+05    -0.737274509734242E+05     0.520184158642658E+04     0.672952998082112E+05     0.000000000000000E+00    -0.171326274116399E+05    -0.742055716598636E+05
     0.121600000000000E+02     0.350769230769231E+01    -0.173966280327933E+05    -0.683832623587189E+05     0.457532065566660E+04     0.620650927342875E+05     0.000000000000000E+00    -0.169893124028380E+05    -0.687905779886742E+05
     0.128000000000000E+02     0.354358974358974E+01    -0.170754641713367E+05    -0.629987589976190E+05     0.383881855002122E+04     0.568233371369909E+05     0.000000000000000E+00    -0.167567812649699E+05    -0.633174419039857E+05
     0.000000000000000E+00     0.267692307692308E+01    -0.184093461290538E+05    -0.138883861606462E+06     0.283075333454503E-09     0.130655539337485E+06     0.000000000000000E+00    -0.184093461290538E+05    -0.138883861606462E+06
     0.660000000000000E+00     0.271025641025641E+01    -0.182628513070370E+05    -0.137966446683833E+06     0.791388686405152E+03     0.129809438545268E+06     0.000000000000000E+00    -0.182576194785446E+05    -0.137971678512326E+06
     0.132000000000000E+01     0.274358974358974E+01    -0.181403757979667E+05    -0.136701936598925E+06     0.157359145865902E+04     0.128623857709252E+06     0.000000000000000E+00    -0.181194942068237E+05    -0.136722818190068E+06
     0.198000000000000E+01     0.277692307692308E+01    -0.180435551630842E+05    -0.135091336741883E+06     0.233535935117137E+04     0.127098673749857E+06     0.000000000000000E+00    -0.179969781685513E+05    -0.135137913736416E+06
     0.264000000000000E+01     0.281025641025641E+01    -0.179732671552765E+05    -0.133137500753500E+06     0.306554354024316E+04     0.125235415283721E+06     0.000000000000000E+00    -0.178917235410597E+05    -0.133219044367716E+06
     0.330000000000000E+01     0.284358974358974E+01    -0.179295681528812E+05    -0.130845159743159E+06     0.375320595952615E+04     0.123037342698044E+06     0.000000000000000E+00    -0.178049527143141E+05    -0.130969775181726E+06
     0.396000000000000E+01     0.287692307692308E+01    -0.179116295934922E+05    -0.128220951506796E+06     0.438772991548223E+04     0.120509539920794E+06     0.000000000000000E+00    -0.177373758756772E+05    -0.128395205224611E+06
     0.462000000000000E+01     0.291025641025641E+01    -0.179176744077646E+05    -0.125273449744846E+06     0.495893070284269E+04     0.117659017350301E+06     0.000000000000000E+00    -0.176891003275310E+05    -0.125502023825080E+06
     0.528000000000000E+01     0.294358974358974E+01    -0.179449134532205E+05    -0.122013193280199E+06     0.545716622006759E+04     0.114494825425304E+06     0.000000000000000E+00    -0.176595313917335E+05    -0.122298575341686E+06
     0.594000000000000E+01     0.297692307692308E+01    -0.179894819480540E+05    -0.118452715276149E+06     0.587344758480504E+04     0.111028178375977E+06     0.000000000000000E+00    -0.176472644761052E+05    -0.118794932748098E+06
     0.660000000000000E+01     0.301025641025641E+01    -0.180463759049369E+05    -0.114606572454349E+06     0.619954974935054E+04     0.107272587815493E+06     0.000000000000000E+00    -0.176499674591525E+05    -0.115002980900134E+06
     0.726000000000000E+01     0.304358974358974E+01    -0.181093885648237E+05    -0.110491374312766E+06     0.642812211610626E+04     0.103244006039300E+06     0.000000000000000E+00    -0.176642519186167E+05    -0.110936510958973E+06
     0.792000000000000E+01     0.307692307692308E+01    -0.181710468307573E+05    -0.106125812343627E+06     0.655279915304040E+04     0.989609792427918E+05     0.000000000000000E+00    -0.176855307742935E+05    -0.106611328400090E+06
     0.858000000000000E+01     0.311025641025641E+01    -0.182225477016740E+05    -0.101530689251377E+06     0.656831100914646E+04     0.944448114248269E+05     0.000000000000000E+00    -0.177078584564678E+05    -0.102045378496584E+06
     0.924000000000000E+01     0.314358974358974E+01    -0.182536947062091E+05    -0.967289481706321E+05     0.647059412990260E+04     0.897197406407680E+05     0.000000000000000E+00    -0.177237474619975E+05    -0.972588954148438E+05
     0.990000000000000E+01     0.317692307692308E+01    -0.182528343365023E+05    -0.917457018841266E+05     0.625690187273092E+04     0.848131307114924E+05     0.000000000000000E+00    -0.177239516644659E+05    -0.922745845561630E+05
     0.105600000000000E+02     0.321025641025641E+01    -0.182067924820028E+05    -0.866082620406708E+05     0.592591512245680E+04     0.797556838231764E+05     0.000000000000000E+00    -0.176972012835401E+05    -0.871178532391335E+05
     0.112200000000000E+02     0.324358974358974E+01    -0.181008108632748E+05    -0.813461683731009E+05     0.547785290676818E+04     0.745816832213104E+05     0.000000000000000E+00    -0.176298658884714E+05    -0.818171133479043E+05
     0.118800000000000E+02     0.327692307692308E+01    -0.179184834658029E+05    -0.759912179162330E+05     0.491458301167494E+04     0.693292813093021E+05     0.000000000000000E+00    -0.175055086301808E+05    -0.764041927518550E+05
     0.125400000000000E+02     0.331025641025641E+01    -0.176416929737973E+05    -0.705774942248145E+05     0.423973259696814E+04     0.640408583292159E+05     0.000000000000000E+00    -0.173042751715089E+05    -0.709149120271028E+05
     0.132000000000000E+02     0.334358974358974E+01    -0.172505472039995E+05    -0.651413965914776E+05     0.345879881167938E+04     0.587634925744622E+05     0.000000000000000E+00    -0.170020335456801E+05    -0.653899102497970E+05
     0.000000000000000E+00     0.252820512820513E+01    -0.191263022350933E+05    -0.142203679389722E+06     0.265863903536901E-09     0.133670757154334E+06     0.000000000000000E+00    -0.191263022350933E+05    -0.142203679389722E+06
     0.680000000000000E+00     0.255897435897436E+01    -0.189849861484177E+05    -0.141333999611423E+06     0.810719090845620E+03     0.132870150585550E+06     0.000000000000000E+00    -0.189796143307852E+05    -0.141339371429056E+06
     0.136000000000000E+01     0.258974358974359E+01    -0.188644797729481E+05    -0.140098758109370E+06     0.161084178015351E+04     0.131713419460753E+06     0.000000000000000E+00    -0.188430802699563E+05    -0.140120157612362E+06
     0.204000000000000E+01     0.262051282051282E+01    -0.187664307922451E+05    -0.138499315057218E+06     0.238822309098991E+04     0.130200661341642E+06     0.000000000000000E+00    -0.187188136136259E+05    -0.138546932235837E+06
     0.272000000000000E+01     0.265128205128205E+01    -0.186917179113583E+05    -0.136539081466585E+06     0.313086728495485E+04     0.128333776074092E+06     0.000000000000000E+00    -0.186085983506052E+05    -0.136622201027338E+06
     0.340000000000000E+01     0.268205128205128E+01    -0.186403849153128E+05    -0.134223549643962E+06     0.382705774445947E+04     0.126116556057052E+06     0.000000000000000E+00    -0.185138063700234E+05    -0.134350128189252E+06
     0.408000000000000E+01     0.271282051282051E+01    -0.186115747275953E+05    -0.131560323647616E+06     0.446548685500319E+04     0.123554791068209E+06     0.000000000000000E+00    -0.184353045001736E+05    -0.131736593875038E+06
     0.476000000000000E+01     0.274358974358974E+01    -0.186034634686416E+05    -0.128559149744501E+06     0.503538588745085E+04     0.120656386997677E+06     0.000000000000000E+00    -0.183733511369622E+05    -0.128789262076180E+06
     0.544000000000000E+01     0.277435897435897E+01    -0.186131945143224E+05    -0.125231946867164E+06     0.552665488030985E+04     0.117431497828396E+06     0.000000000000000E+00    -0.183274822731914E+05    -0.125517659108295E+06
     0.612000000000000E+01     0.280512820512820E+01    -0.186368125544306E+05    -0.121592837070653E+06     0.592999252200729E+04     0.113892670223177E+06     0.000000000000000E+00    -0.182963864208138E+05    -0.121933263204270E+06
     0.680000000000000E+01     0.283589743589744E+01    -0.186691976511674E+05    -0.117658175989426E+06     0.623702603316707E+04     0.110055000143064E+06     0.000000000000000E+00    -0.182777674456729E+05    -0.118049606194920E+06
     0.748000000000000E+01     0.286666666666667E+01    -0.187039992976293E+05    -0.113446583294256E+06     0.644044104888706E+04     0.105936301046075E+06     0.000000000000000E+00    -0.182681936378160E+05    -0.113882388954069E+06
     0.816000000000000E+01     0.289743589743590E+01    -0.187335704762947E+05    -0.108978973149141E+06     0.653411150101623E+04     0.101557283425813E+06     0.000000000000000E+00    -0.182629303141639E+05    -0.109449613311272E+06
     0.884000000000000E+01     0.292820512820513E+01    -0.187489017175101E+05    -0.104278584668210E+06     0.651322950043180E+04     0.969417457879137E+05     0.000000000000000E+00    -0.182557517353605E+05    -0.104771734650360E+06
     0.952000000000000E+01     0.295897435897436E+01    -0.187395551579775E+05    -0.993710123726315E+05     0.637443521931633E+04     0.921167776961144E+05     0.000000000000000E+00    -0.182387258812189E+05    -0.998718416493901E+05
     0.102000000000000E+02     0.298974358974359E+01    -0.186935985992401E+05    -0.942842366475206E+05     0.611594677343491E+04     0.871129763552889E+05     0.000000000000000E+00    -0.182019623373822E+05    -0.947758729093786E+05
     0.108800000000000E+02     0.302051282051282E+01    -0.185975395661699E+05    -0.890486541988467E+05     0.573769010441227E+04     0.819646795026163E+05     0.000000000000000E+00    -0.181333087634831E+05    -0.895128850015335E+05
     0.115600000000000E+02     0.305128205128205E+01    -0.184362593654536E+05    -0.836971085103416E+05     0.524142886200991E+04     0.767102194058492E+05     0.000000000000000E+00    -0.180179746697058E+05    -0.841153932060894E+05
     0.122400000000000E+02     0.308205128205128E+01    -0.181929471440794E+05    -0.782649203004063E+05     0.463089428640325E+04     0.713922058969385E+05     0.000000000000000E+00    -0.178380523329930E+05    -0.786198151114928E+05
     0.129200000000000E+02     0.311282051282051E+01    -0.178490339478240E+05    -0.727899179790194E+05     0.391191509045877E+04     0.660578511171910E+05     0.000000000000000E+00    -0.175718947317671E+05    -0.730670571950763E+05
     0.136000000000000E+02     0.314358974358974E+01    -0.173841267797388E+05    -0.673124681046440E+05     0.309254734201113E+04     0.607593556090931E+05     0.000000000000000E+00    -0.171933045794088E+05    -0.675032903049740E+05
     0.000000000000000E+00     0.237948717948718E+01    -0.198685749361067E+05    -0.145524330259712E+06     0.246981799044876E-09     0.136677466711736E+06     0.000000000000000E+00    -0.198685749361067E+05    -0.145524330259712E+06
     0.700000000000000E+00     0.240769230769231E+01    -0.197332433235662E+05    -0.144702288403704E+06     0.830770939570992E+03     0.135921956415624E+06     0.000000000000000E+00    -0.197277207571190E+05    -0.144707810970151E+06
     0.140000000000000E+01     0.243589743589744E+01    -0.196149067101788E+05    -0.143495894974555E+06     0.164950485275259E+04     0.134793621679053E+06     0.000000000000000E+00    -0.195929470530044E+05    -0.143517854631729E+06
     0.210000000000000E+01     0.246410256410256E+01    -0.195152068874759E+05    -0.141906895715031E+06     0.244311064240456E+04     0.133292814103133E+06     0.000000000000000E+00    -0.194664583715400E+05    -0.141955644230966E+06
     0.280000000000000E+01     0.249230769230769E+01    -0.194350148899775E+05    -0.139939302822014E+06     0.319870146417022E+04     0.131421843379314E+06     0.000000000000000E+00    -0.193501673536125E+05    -0.140024150358379E+06
     0.350000000000000E+01     0.252051282051282E+01    -0.193743632717542E+05    -0.137599426354647E+06     0.390374628583438E+04     0.129185078543640E+06     0.000000000000000E+00    -0.192456032987285E+05    -0.137728186327673E+06
     0.420000000000000E+01     0.254871794871795E+01    -0.193323783829877E+05    -0.134895905642474E+06     0.454622144668094E+04     0.126589067107617E+06     0.000000000000000E+00    -0.191538078383511E+05    -0.135074476187110E+06
     0.490000000000000E+01     0.257692307692308E+01    -0.193072126465327E+05    -0.131839740693580E+06     0.511476221685052E+04     0.123642671255109E+06     0.000000000000000E+00    -0.190752177614864E+05    -0.132071735578626E+06
     0.560000000000000E+01     0.260512820512820E+01    -0.192959768344772E+05    -0.128444323602739E+06     0.559881435669810E+04     0.120357220230469E+06     0.000000000000000E+00    -0.190095348122718E+05    -0.128730765624945E+06
     0.630000000000000E+01     0.263333333333333E+01    -0.192946723447048E+05    -0.124725469959555E+06     0.598878567615066E+04     0.116746677996579E+06     0.000000000000000E+00    -0.189555819424433E+05    -0.125064560361816E+06
     0.700000000000000E+01     0.266153846153846E+01    -0.192981234774548E+05    -0.120701450256600E+06     0.627619759406481E+04     0.112827825209729E+06     0.000000000000000E+00    -0.189111450108450E+05    -0.121088428723210E+06
     0.770000000000000E+01     0.268974358974359E+01    -0.192999097118844E+05    -0.116393021297562E+06     0.645383669758439E+04     0.108620454537267E+06     0.000000000000000E+00    -0.188727982184529E+05    -0.116820132790994E+06
     0.840000000000000E+01     0.271794871794872E+01    -0.192922979826290E+05    -0.111823457605385E+06     0.651590630149815E+04     0.104147578327548E+06     0.000000000000000E+00    -0.188357105688783E+05    -0.112280045019136E+06
     0.910000000000000E+01     0.274615384615385E+01    -0.192661749563644E+05    -0.107018582830411E+06     0.645817800759736E+04     0.994356476200530E+05     0.000000000000000E+00    -0.187934292429047E+05    -0.107491328543871E+06
     0.980000000000000E+01     0.277435897435897E+01    -0.192109793083669E+05    -0.102006801158523E+06     0.627814326403343E+04     0.945147814404875E+05     0.000000000000000E+00    -0.187376338419247E+05    -0.102480146624966E+06
     0.105000000000000E+02     0.280256410256410E+01    -0.191146339990754E+05    -0.968191287192891E+05     0.597516492467556E+04     0.894190052334151E+05     0.000000000000000E+00    -0.186578528694319E+05    -0.972759098489326E+05
     0.112000000000000E+02     0.283076923076923E+01    -0.189634785506522E+05    -0.914892249941015E+05     0.555062880846837E+04     0.841864970970947E+05     0.000000000000000E+00    -0.185411305727674E+05    -0.919115729719863E+05
     0.119000000000000E+02     0.285897435897436E+01    -0.187422013235442E+05    -0.860534242243221E+05     0.500809525878954E+04     0.788598401225499E+05     0.000000000000000E+00    -0.183716287354509E+05    -0.864239968124153E+05
     0.126000000000000E+02     0.288717948717949E+01    -0.184337717930444E+05    -0.805507668194233E+05     0.435345070280740E+04     0.734862784707219E+05     0.000000000000000E+00    -0.181301456409179E+05    -0.808543929715498E+05
     0.133000000000000E+02     0.291538461538461E+01    -0.180193728258526E+05    -0.750230307651313E+05     0.359505921083863E+04     0.681179736378653E+05     0.000000000000000E+00    -0.177935373351845E+05    -0.752488662557993E+05
     0.140000000000000E+02     0.294358974358974E+01    -0.174783329566370E+05    -0.695147630315677E+05     0.274391405570582E+04     0.628122553459587E+05     0.000000000000000E+00    -0.173340447101869E+05    -0.696590512780178E+05
     0.000000000000000E+00     0.223076923076923E+01    -0.206349263493583E+05    -0.148845605200045E+06     0.226458025224679E-09     0.139676040436728E+06     0.000000000000000E+00    -0.206349263493583E+05    -0.148845605200045E+06
     0.720000000000000E+00     0.225641025641026E+01    -0.205063591147443E+05    -0.148071100331266E+06     0.851658132743714E+03     0.138965241424868E+06     0.000000000000000E+00    -0.205006734586495E+05    -0.148076785987361E+06
     0.144000000000000E+01     0.228205128205128E+01    -0.203903333166062E+05    -0.146893143141546E+06     0.168981338727437E+04     0.137864888394530E+06     0.000000000000000E+00    -0.203677649645099E+05    -0.146915711493642E+06
     0.216000000000000E+01     0.230769230769231E+01    -0.202884670139377E+05    -0.145313896489239E+06     0.250037501721380E+04     0.136375620389982E+06     0.000000000000000E+00    -0.202384821687091E+05    -0.145363881334468E+06
     0.288000000000000E+01     0.233333333333333E+01    -0.202016169849953E+05    -0.143338018459816E+06     0.326951765234805E+04     0.134500194622605E+06     0.000000000000000E+00    -0.201148658716332E+05    -0.143424769573178E+06
     0.360000000000000E+01     0.235897435897436E+01    -0.201298099489611E+05    -0.140972694373007E+06     0.398385715064560E+04     0.132243599523891E+06     0.000000000000000E+00    -0.199986155810829E+05    -0.141103888740885E+06
     0.432000000000000E+01     0.238461538461538E+01    -0.200721737876050E+05    -0.138227668789948E+06     0.463062645027539E+04     0.129613189504085E+06     0.000000000000000E+00    -0.198909730097683E+05    -0.138408869567784E+06
     0.504000000000000E+01     0.241025641025641E+01    -0.200268687669477E+05    -0.135115277520325E+06     0.519785142162481E+04     0.126618840378901E+06     0.000000000000000E+00    -0.197925899795085E+05    -0.135349556307764E+06
     0.576000000000000E+01     0.243589743589744E+01    -0.199910187589230E+05    -0.131650479629525E+06     0.567452671931771E+04     0.123273124282113E+06     0.000000000000000E+00    -0.197033806354024E+05    -0.131938117753045E+06
     0.648000000000000E+01     0.246153846153846E+01    -0.199606424630408E+05    -0.127850889445777E+06     0.605079163423239E+04     0.119591502729113E+06     0.000000000000000E+00    -0.196223575509211E+05    -0.128189174357897E+06
     0.720000000000000E+01     0.248717948717949E+01    -0.199305846280491E+05    -0.123736808567302E+06     0.631810594551963E+04     0.115592536313977E+06     0.000000000000000E+00    -0.195474508453709E+05    -0.124119942349980E+06
     0.792000000000000E+01     0.251282051282051E+01    -0.198944472735972E+05    -0.119331257869457E+06     0.646942577262065E+04     0.111298109277450E+06     0.000000000000000E+00    -0.194753088024446E+05    -0.119750396340610E+06
     0.864000000000000E+01     0.253846153846154E+01    -0.198445209118982E+05    -0.114660009511882E+06     0.649937942728517E+04     0.106733666824438E+06     0.000000000000000E+00    -0.194010776346394E+05    -0.115103452789141E+06
     0.936000000000000E+01     0.256410256410256E+01    -0.197717157693911E+05    -0.109751618945646E+06     0.640444326558939E+04     0.101928462517878E+06     0.000000000000000E+00    -0.193181569578564E+05    -0.110205177757181E+06
     0.100800000000000E+02     0.258974358974359E+01    -0.196654930084042E+05    -0.104637456920392E+06     0.618311753995397E+04     0.969158122087620E+05     0.000000000000000E+00    -0.192179262492275E+05    -0.105085023679569E+06
     0.108000000000000E+02     0.261538461538461E+01    -0.195137959488171E+05    -0.993517414914860E+05     0.583610225116206E+04     0.917333495930280E+05     0.000000000000000E+00    -0.190894362276000E+05    -0.997761012127030E+05
     0.115200000000000E+02     0.264102564102564E+01    -0.193029812897234E+05    -0.939315700271599E+05     0.536647300037732E+04     0.864232763385038E+05     0.000000000000000E+00    -0.189190582377315E+05    -0.943154930791519E+05
     0.122400000000000E+02     0.266666666666667E+01    -0.190177503310937E+05    -0.884169512156601E+05     0.477985684116188E+04     0.810325964099530E+05     0.000000000000000E+00    -0.186900856463918E+05    -0.887446159003619E+05
     0.129600000000000E+02     0.269230769230769E+01    -0.186410801954376E+05    -0.828508370723923E+05     0.408460813149439E+04     0.756133192439456E+05     0.000000000000000E+00    -0.183822869766806E+05    -0.831096302911493E+05
     0.136800000000000E+02     0.271794871794872E+01    -0.181541550494670E+05    -0.772791549470683E+05     0.329198438578796E+04     0.702226093041339E+05     0.000000000000000E+00    -0.179714274076253E+05    -0.774618825889100E+05
     0.144000000000000E+02     0.274358974358974E+01    -0.175362973257580E+05    -0.717508395308520E+05     0.241632212690826E+04     0.649228502128229E+05     0.000000000000000E+00    -0.174288158252045E+05    -0.718583210314055E+05
     0.000000000000000E+00     0.208205128205128E+01    -0.214238337900956E+05    -0.152167289792460E+06     0.204328788436710E-09     0.142666947861953E+06     0.000000000000000E+00    -0.214238337900956E+05    -0.152167289792460E+06
     0.740000000000000E+00     0.210512820512820E+01    -0.213027688043933E+05    -0.151440217040167E+06     0.873495606804538E+03     0.142000494183428E+06     0.000000000000000E+00    -0.212969060783764E+05    -0.151446079766184E+06
     0.148000000000000E+01     0.212820512820513E+01    -0.211891196147232E+05    -0.150290293185884E+06     0.173200190335941E+04     0.140927752797234E+06     0.000000000000000E+00    -0.211658875186858E+05    -0.150313525281921E+06
     0.222000000000000E+01     0.215128205128205E+01    -0.210844632793498E+05    -0.148720130517354E+06     0.256037112262040E+04     0.139449683337541E+06     0.000000000000000E+00    -0.210331228931388E+05    -0.148771470903565E+06
     0.296000000000000E+01     0.217435897435897E+01    -0.209896383562111E+05    -0.146735078560668E+06     0.334378826943000E+04     0.137569526877662E+06     0.000000000000000E+00    -0.209007840416261E+05    -0.146823932875253E+06
     0.370000000000000E+01     0.219743589743590E+01    -0.209046759432953E+05    -0.144343256263863E+06     0.406797409657429E+04     0.135292931626544E+06     0.000000000000000E+00    -0.207707593060354E+05    -0.144477172901123E+06
     0.444000000000000E+01     0.222051282051282E+01    -0.208287307190167E+05    -0.141555584180510E+06     0.471938808083965E+04     0.132628104725034E+06     0.000000000000000E+00    -0.206445240481531E+05    -0.141739790851374E+06
     0.518000000000000E+01     0.224358974358974E+01    -0.207600119825924E+05    -0.138385816653313E+06     0.528543139906941E+04     0.129585988793546E+06     0.000000000000000E+00    -0.205229925044321E+05    -0.138622836131473E+06
     0.592000000000000E+01     0.226666666666667E+01    -0.206957146944182E+05    -0.134850573997699E+06     0.575464990422057E+04     0.126180461621232E+06     0.000000000000000E+00    -0.204063510666874E+05    -0.135139937625430E+06
     0.666000000000000E+01     0.228974358974359E+01    -0.206319505164451E+05    -0.130969374685415E+06     0.611693710142045E+04     0.122428557078937E+06     0.000000000000000E+00    -0.202938728129813E+05    -0.131307452388879E+06
     0.740000000000000E+01     0.231282051282051E+01    -0.205636788525558E+05    -0.126764667528120E+06     0.636373712402341E+04     0.118350704937138E+06     0.000000000000000E+00    -0.201837127482241E+05    -0.127144633632452E+06
     0.814000000000000E+01     0.233589743589744E+01    -0.204846378889405E+05    -0.122261863860979E+06     0.648824770966754E+04     0.113970986704549E+06     0.000000000000000E+00    -0.200726827496177E+05    -0.122673819000302E+06
     0.888000000000000E+01     0.235897435897436E+01    -0.203872756344736E+05    -0.117489369726259E+06     0.648562317633129E+04     0.109317403763974E+06     0.000000000000000E+00    -0.199560046743975E+05    -0.117920640686335E+06
     0.962000000000000E+01     0.238205128205128E+01    -0.202626809610900E+05    -0.112478618056919E+06     0.635317739839023E+04     0.104422152804181E+06     0.000000000000000E+00    -0.198270395644494E+05    -0.112914259453560E+06
     0.103600000000000E+02     0.240512820512821E+01    -0.201005146441611E+05    -0.107264100860208E+06     0.609058678267369E+04     0.993219015839279E+05     0.000000000000000E+00    -0.196769905976879E+05    -0.107687624906681E+06
     0.111000000000000E+02     0.242820512820513E+01    -0.198889404028715E+05    -0.101883401401256E+06     0.570009324452145E+04     0.940580550613065E+05     0.000000000000000E+00    -0.194945778957522E+05    -0.102277763908375E+06
     0.118400000000000E+02     0.245128205128205E+01    -0.196145559405948E+05    -0.963772263866698E+05     0.518670718384043E+04     0.886769973928195E+05     0.000000000000000E+00    -0.192656855753053E+05    -0.967260967519593E+05
     0.125800000000000E+02     0.247435897435897E+01    -0.192623239852704E+05    -0.907894381481249E+05     0.455841046116139E+04     0.832302886593165E+05     0.000000000000000E+00    -0.189729876869850E+05    -0.910787744464103E+05
     0.133200000000000E+02     0.249743589743590E+01    -0.188155033297796E+05    -0.851670868259613E+05     0.382635937369561E+04     0.777747858652294E+05     0.000000000000000E+00    -0.185955740320634E+05    -0.853870161236775E+05
     0.140600000000000E+02     0.252051282051282E+01    -0.182555798723217E+05    -0.795604425527763E+05     0.300508763139156E+04     0.723726457785391E+05     0.000000000000000E+00    -0.181086264988945E+05    -0.797073959262035E+05
     0.148000000000000E+02     0.254358974358974E+01    -0.175621976567906E+05    -0.740230276370191E+05     0.211270933299160E+04     0.670911543107495E+05     0.000000000000000E+00    -0.174832525121406E+05    -0.741019727816691E+05
     0.000000000000000E+00     0.193333333333333E+01    -0.222334724981824E+05    -0.155489164613961E+06     0.180637648040364E-09     0.145650758825573E+06     0.000000000000000E+00    -0.222334724981824E+05    -0.155489164613961E+06
     0.760000000000000E+00     0.195384615384615E+01    -0.221205879362862E+05    -0.154809415011841E+06     0.896399044910980E+03     0.145028310003820E+06     0.000000000000000E+00    -0.221145324559825E+05    -0.154815470492145E+06
     0.152000000000000E+01     0.197435897435897E+01    -0.220092888003949E+05    -0.153687130895740E+06     0.177630608789858E+04     0.143982861263516E+06     0.000000000000000E+00    -0.219853311678916E+05    -0.153711088528243E+06
     0.228000000000000E+01     0.199487179487179E+01    -0.219010948788051E+05    -0.152125407075132E+06     0.262345467703215E+04     0.142515725462712E+06     0.000000000000000E+00    -0.218482650858165E+05    -0.152178236868120E+06
     0.304000000000000E+01     0.201538461538461E+01    -0.217968257877181E+05    -0.150130330879561E+06     0.342198493265782E+04     0.140630662159539E+06     0.000000000000000E+00    -0.217056440907084E+05    -0.150221512576571E+06
     0.380000000000000E+01     0.203589743589744E+01    -0.216965328640084E+05    -0.147711014019779E+06     0.415667670538278E+04     0.138334016838641E+06     0.000000000000000E+00    -0.215595708063977E+05    -0.147847976077390E+06
     0.456000000000000E+01     0.205641025641026E+01    -0.215994310579932E+05    -0.144879624448874E+06     0.481318273405928E+04     0.135634891258034E+06     0.000000000000000E+00    -0.214117973353220E+05    -0.145067258171545E+06
     0.532000000000000E+01     0.207692307692308E+01    -0.215038308262002E+05    -0.141651418223405E+06     0.537826180376872E+04     0.132545343151791E+06     0.000000000000000E+00    -0.212635599181777E+05    -0.141891689131427E+06
     0.608000000000000E+01     0.209743589743590E+01    -0.214070700241367E+05    -0.138044771364538E+06     0.584001190380564E+04     0.129080613099524E+06     0.000000000000000E+00    -0.211153919257811E+05    -0.138336449462893E+06
     0.684000000000000E+01     0.211794871794872E+01    -0.213054457990583E+05    -0.134081211719174E+06     0.618810338566185E+04     0.125259375850108E+06     0.000000000000000E+00    -0.209669154384344E+05    -0.134419742079798E+06
     0.760000000000000E+01     0.213846153846154E+01    -0.211941464827376E+05    -0.129785450821089E+06     0.641401212101041E+04     0.121104012684965E+06     0.000000000000000E+00    -0.208166114760719E+05    -0.130162985827755E+06
     0.836000000000000E+01     0.215897435897436E+01    -0.210671834842328E+05    -0.125185415752060E+06     0.651125265968972E+04     0.116640900405350E+06     0.000000000000000E+00    -0.206615687616689E+05    -0.125591030474623E+06
     0.912000000000000E+01     0.217948717948718E+01    -0.209173231826563E+05    -0.120312281003002E+06     0.647561138768755E+04     0.111900711048785E+06     0.000000000000000E+00    -0.204972108411397E+05    -0.120732393344518E+06
     0.988000000000000E+01     0.220000000000000E+01    -0.207360188199437E+05    -0.115200500335101E+06     0.630537968512509E+04     0.106918714217222E+06     0.000000000000000E+00    -0.203170016722428E+05    -0.115619517482802E+06
     0.106400000000000E+02     0.222051282051282E+01    -0.205133423936221E+05    -0.109887838640950E+06     0.600158708424101E+04     0.101735070555781E+06     0.000000000000000E+00    -0.201121308807490E+05    -0.110289050153823E+06
     0.114000000000000E+02     0.224102564102564E+01    -0.202379165495793E+05    -0.104415403805673E+06     0.556823442737551E+04     0.963950999448330E+05     0.000000000000000E+00    -0.198711826178852E+05    -0.104782137737367E+06
     0.121600000000000E+02     0.226153846153846E+01    -0.198968464748317E+05    -0.988276785680706E+05     0.501252702495435E+04     0.909495007374515E+05     0.000000000000000E+00    -0.195797979056350E+05    -0.991447271372673E+05
     0.129200000000000E+02     0.228205128205128E+01    -0.194756517902939E+05    -0.931725523817428E+05     0.434510781347291E+04     0.854544863018774E+05     0.000000000000000E+00    -0.192203522606007E+05    -0.934278519114360E+05
     0.136800000000000E+02     0.230256410256410E+01    -0.189581984435468E+05    -0.875013532762282E+05     0.358029051348026E+04     0.799717921169040E+05     0.000000000000000E+00    -0.187716926461458E+05    -0.876878590736292E+05
     0.144400000000000E+02     0.232307692307692E+01    -0.183266306016064E+05    -0.818688797181351E+05     0.273629278756317E+04     0.745684922323525E+05     0.000000000000000E+00    -0.182090164906161E+05    -0.819864938291254E+05
     0.152000000000000E+02     0.234358974358974E+01    -0.175613025436926E+05    -0.763334324722749E+05     0.183546939833020E+04     0.693165535923630E+05     0.000000000000000E+00    -0.175040361408007E+05    -0.763906988751668E+05
     0.000000000000000E+00     0.178461538461538E+01    -0.230616983647319E+05    -0.158811005633943E+06     0.155435668278881E-09     0.148628146503280E+06     0.000000000000000E+00    -0.230616983647319E+05    -0.158811005633943E+06
     0.780000000000000E+00     0.180256410256410E+01    -0.229575935766795E+05    -0.158178466023012E+06     0.920484587375784E+03     0.148049394312550E+06     0.000000000000000E+00    -0.229513278826240E+05    -0.158184731717067E+06
     0.156000000000000E+01     0.182051282051282E+01    -0.228485071006835E+05    -0.157083437856066E+06     0.182296215346084E+04     0.147030977189147E+06     0.000000000000000E+00    -0.228237551353458E+05    -0.157108189821404E+06
     0.234000000000000E+01     0.183846153846154E+01    -0.227358866395855E+05    -0.155529532351228E+06     0.268998112586261E+04     0.145574593090302E+06     0.000000000000000E+00    -0.226814184334205E+05    -0.155584000557392E+06
     0.312000000000000E+01     0.185641025641026E+01    -0.226205360462592E+05    -0.153523621779467E+06     0.350457680839050E+04     0.143684552582064E+06     0.000000000000000E+00    -0.225267776150218E+05    -0.153617380210704E+06
     0.390000000000000E+01     0.187435897435897E+01    -0.225025492765263E+05    -0.151075870421775E+06     0.425053801630914E+04     0.141367932535153E+06     0.000000000000000E+00    -0.223621829038701E+05    -0.151216236794431E+06
     0.468000000000000E+01     0.189230769230769E+01    -0.223812443420726E+05    -0.148199765526336E+06     0.491267371159151E+04     0.138634766655653E+06     0.000000000000000E+00    -0.221897170528687E+05    -0.148391292815540E+06
     0.546000000000000E+01     0.191025641025641E+01    -0.222550972633641E+05    -0.144912148265694E+06     0.547707963817202E+04     0.135498270538678E+06     0.000000000000000E+00    -0.220110116333620E+05    -0.145156233895696E+06
     0.624000000000000E+01     0.192820512820513E+01    -0.221216760225636E+05    -0.141233244693924E+06     0.593140495719964E+04     0.131975098288978E+06     0.000000000000000E+00    -0.218270383663786E+05    -0.141527882350109E+06
     0.702000000000000E+01     0.194615384615385E+01    -0.219775745164462E+05    -0.137186696703804E+06     0.626511888229102E+04     0.128085626939490E+06     0.000000000000000E+00    -0.216378764173058E+05    -0.137526394802945E+06
     0.780000000000000E+01     0.196410256410256E+01    -0.218183465093158E+05    -0.132799592983983E+06     0.646977731478353E+04     0.123854263796610E+06     0.000000000000000E+00    -0.214424566482772E+05    -0.133175482845022E+06
     0.858000000000000E+01     0.198205128205128E+01    -0.216384395859212E+05    -0.128102499976153E+06     0.653928947898848E+04     0.119309770270437E+06     0.000000000000000E+00    -0.212382840565699E+05    -0.128502655505505E+06
     0.936000000000000E+01     0.200000000000000E+01    -0.214311291043722E+05    -0.123129492832218E+06     0.647018455744412E+04     0.114485593447326E+06     0.000000000000000E+00    -0.210211402333164E+05    -0.123539481703274E+06
     0.101400000000000E+02     0.201794871794872E+01    -0.211884521490559E+05    -0.117918186371463E+06     0.626187832616880E+04     0.109420193258319E+06     0.000000000000000E+00    -0.207847690372302E+05    -0.118321869483289E+06
     0.109200000000000E+02     0.203589743589744E+01    -0.209011414835526E+05    -0.112509766037729E+06     0.591693978991409E+04     0.104157348086327E+06     0.000000000000000E+00    -0.205205514693673E+05    -0.112890356051914E+06
     0.117000000000000E+02     0.205384615384615E+01    -0.205585595035522E+05    -0.106949018856576E+06     0.544135781741786E+04     0.987464144155493E+05     0.000000000000000E+00    -0.202171811162314E+05    -0.107290397243897E+06
     0.124800000000000E+02     0.207179487179487E+01    -0.201486321897702E+05    -0.101284364392461E+06     0.484480777665739E+04     0.932425060364818E+05     0.000000000000000E+00    -0.198603613908964E+05    -0.101572635191335E+06
     0.132600000000000E+02     0.208974358974359E+01    -0.196577830608637E+05    -0.955678857059016E+05     0.414091817010249E+04     0.877065451277536E+05     0.000000000000000E+00    -0.194325629832664E+05    -0.957931057834988E+05
     0.140400000000000E+02     0.210769230769231E+01    -0.190708671263479E+05    -0.898553603106508E+05     0.334753726996860E+04     0.822051222841658E+05     0.000000000000000E+00    -0.189129080283281E+05    -0.900133194086706E+05
     0.148200000000000E+02     0.212564102564103E+01    -0.183711048395119E+05    -0.842062911308645E+05     0.248699975346992E+04     0.768100895706414E+05     0.000000000000000E+00    -0.182772892561134E+05    -0.843001067142630E+05
     0.156000000000000E+02     0.214358974358974E+01    -0.175400160503353E+05    -0.786839374582729E+05     0.158639333807246E+04     0.715978112970709E+05     0.000000000000000E+00    -0.174988843736234E+05    -0.787250691349848E+05
     0.000000000000000E+00     0.163589743589744E+01    -0.239060306587399E+05    -0.162132584611325E+06     0.128781570164202E-09     0.151599890356511E+06     0.000000000000000E+00    -0.239060306587399E+05    -0.162132584611325E+06
     0.800000000000000E+00     0.165128205128205E+01    -0.238112055754663E+05    -0.161547137605602E+06     0.945868542105381E+03     0.151064565923853E+06     0.000000000000000E+00    -0.238047103559700E+05    -0.161553632825098E+06
     0.160000000000000E+01     0.166666666666667E+01    -0.237040636316744E+05    -0.160478992032750E+06     0.187220619672105E+04     0.150072984730563E+06     0.000000000000000E+00    -0.236784412491404E+05    -0.160504614415284E+06
     0.240000000000000E+01     0.168205128205128E+01    -0.235859675659771E+05    -0.158932310221845E+06     0.276030455733195E+04     0.148627260716685E+06     0.000000000000000E+00    -0.235296962649544E+05    -0.158988581522867E+06
     0.320000000000000E+01     0.169743589743590E+01    -0.234577132395834E+05    -0.156914797265003E+06     0.359202896392148E+04     0.146732285506941E+06     0.000000000000000E+00    -0.233611028677335E+05    -0.157011407636852E+06
     0.400000000000000E+01     0.171282051282051E+01    -0.233194670457325E+05    -0.154437730400041E+06     0.435012215946189E+04     0.144395897580707E+06     0.000000000000000E+00    -0.231753011719670E+05    -0.154581896273806E+06
     0.480000000000000E+01     0.172820512820513E+01    -0.231707033191273E+05    -0.151515988393131E+06     0.501850794640443E+04     0.141629094757798E+06     0.000000000000000E+00    -0.229747706645814E+05    -0.151711921047677E+06
     0.560000000000000E+01     0.174358974358974E+01    -0.230101417453691E+05    -0.148168080921457E+06     0.558259484316965E+04     0.138446286979812E+06     0.000000000000000E+00    -0.227616269027571E+05    -0.148416595764069E+06
     0.640000000000000E+01     0.175897435897436E+01    -0.228356847703909E+05    -0.144416177955867E+06     0.602957974063760E+04     0.134865585433478E+06     0.000000000000000E+00    -0.225373897808109E+05    -0.144714472945447E+06
     0.720000000000000E+01     0.177435897435897E+01    -0.226443550098920E+05    -0.140286139143533E+06     0.634875155863804E+04     0.130909122871324E+06     0.000000000000000E+00    -0.223027252416027E+05    -0.140627768911823E+06
     0.800000000000000E+01     0.178974358974359E+01    -0.224322326587716E+05    -0.135807543190606E+06     0.653179490244068E+04     0.126603398365922E+06     0.000000000000000E+00    -0.220571627514637E+05    -0.136182613097914E+06
     0.880000000000000E+01     0.180512820512820E+01    -0.221943929005631E+05    -0.131013717244868E+06     0.657309371924538E+04     0.121979637439094E+06     0.000000000000000E+00    -0.217987916509443E+05    -0.131409318494487E+06
     0.960000000000000E+01     0.182051282051282E+01    -0.219248433168678E+05    -0.125941766278394E+06     0.647003495467242E+04     0.117074155183932E+06     0.000000000000000E+00    -0.215239409595656E+05    -0.126342668635696E+06
     0.104000000000000E+02     0.183589743589744E+01    -0.216164612967892E+05    -0.120632602470203E+06     0.622331220925269E+04     0.111928705164774E+06     0.000000000000000E+00    -0.212268498925240E+05    -0.121022213874468E+06
     0.112000000000000E+02     0.185128205128205E+01    -0.212609314463669E+05    -0.115130974588914E+06     0.583722939491792E+04     0.106590789933740E+06     0.000000000000000E+00    -0.208993411209643E+05    -0.115492564914316E+06
     0.120000000000000E+02     0.186666666666667E+01    -0.208486829980105E+05    -0.109485497375405E+06     0.532000439149092E+04     0.101113899295836E+06     0.000000000000000E+00    -0.205305170379024E+05    -0.109803663335513E+06
     0.128000000000000E+02     0.188205128205128E+01    -0.203688272199338E+05    -0.103748680925466E+06     0.468407270317579E+04     0.955576295817805E+05     0.000000000000000E+00    -0.201065129159080E+05    -0.104010995229492E+06
     0.136000000000000E+02     0.189743589743590E+01    -0.198090948255887E+05    -0.979769600724560E+05     0.394639111504814E+04     0.899876216962611E+05     0.000000000000000E+00    -0.196103621608061E+05    -0.981756927372387E+05
     0.144000000000000E+02     0.191282051282051E+01    -0.191557733830991E+05    -0.922307237699570E+05     0.312874134954534E+04     0.844752406616005E+05     0.000000000000000E+00    -0.190220593956085E+05    -0.923644377574476E+05
     0.152000000000000E+02     0.192820512820513E+01    -0.183936447246951E+05    -0.865743444744319E+05     0.225803372295671E+04     0.790969133517981E+05     0.000000000000000E+00    -0.183189441695561E+05    -0.866490450295709E+05
     0.160000000000000E+02     0.194358974358974E+01    -0.175059223561470E+05    -0.810762075278795E+05     0.136661080191377E+04     0.739330631448544E+05     0.000000000000000E+00    -0.174765570205043E+05    -0.811055728635222E+05
     0.000000000000000E+00     0.148717948717949E+01    -0.247636347537185E+05    -0.165453669491681E+06     0.100741883361811E-09     0.154566879099384E+06     0.000000000000000E+00    -0.247636347537184E+05    -0.165453669491681E+06
     0.820000000000000E+00     0.150000000000000E+01    -0.246784678273278E+05    -0.164915193506643E+06     0.972667095038353E+03     0.154074760328485E+06     0.000000000000000E+00    -0.246717218357569E+05    -0.164921939498214E+06
     0.164000000000000E+01     0.151282051282051E+01    -0.245728502563019E+05    -0.163873568356766E+06     0.192427355688776E+04     0.153109892579372E+06     0.000000000000000E+00    -0.245462737787140E+05    -0.163900144834354E+06
     0.246000000000000E+01     0.152564102564103E+01    -0.244480493840859E+05    -0.162333543025386E+06     0.283477661826764E+04     0.151674835449754E+06     0.000000000000000E+00    -0.243897940551169E+05    -0.162391798354355E+06
     0.328000000000000E+01     0.153846153846154E+01    -0.243048661748015E+05    -0.160303704016102E+06     0.368480071929585E+04     0.149775088838710E+06     0.000000000000000E+00    -0.242051020615341E+05    -0.160403468129370E+06
     0.410000000000000E+01     0.155128205128205E+01    -0.241435776792528E+05    -0.157796502394650E+06     0.445598198921459E+04     0.147419278673191E+06     0.000000000000000E+00    -0.239951802257274E+05    -0.157944899848176E+06
     0.492000000000000E+01     0.156410256410256E+01    -0.239638795009317E+05    -0.154828280830776E+06     0.513131272811624E+04     0.144619393276023E+06     0.000000000000000E+00    -0.237629844429766E+05    -0.155029175888731E+06
     0.574000000000000E+01     0.157692307692308E+01    -0.237648282620235E+05    -0.151419300640105E+06     0.569548588866915E+04     0.141391066450176E+06     0.000000000000000E+00    -0.235112198948349E+05    -0.151672909007293E+06
     0.656000000000000E+01     0.158974358974359E+01    -0.235447840694124E+05    -0.147593768826014E+06     0.613523955784349E+04     0.137753902047961E+06     0.000000000000000E+00    -0.232420847957703E+05    -0.147896468099656E+06
     0.738000000000000E+01     0.160256410256410E+01    -0.233013529806875E+05    -0.143379865121506E+06     0.643970143863705E+04     0.133731833118853E+06     0.000000000000000E+00    -0.229569852437518E+05    -0.143724232858442E+06
     0.820000000000000E+01     0.161538461538461E+01    -0.230313294701480E+05    -0.138809769031078E+06     0.660073333180104E+04     0.129353506457871E+06     0.000000000000000E+00    -0.226562252838103E+05    -0.139184873217415E+06
     0.902000000000000E+01     0.162820512820513E+01    -0.227306388948086E+05    -0.133919686872593E+06     0.661327561756591E+04     0.124652680182154E+06     0.000000000000000E+00    -0.223386778007328E+05    -0.134311647966668E+06
     0.984000000000000E+01     0.164102564102564E+01    -0.223942799604059E+05    -0.128749878819154E+06     0.647569173736719E+04     0.119668617398964E+06     0.000000000000000E+00    -0.220014443774139E+05    -0.129142714402146E+06
     0.106600000000000E+02     0.165384615384615E+01    -0.220162671874031E+05    -0.123344685940977E+06     0.619011267557129E+04     0.114446452517023E+06     0.000000000000000E+00    -0.216395164761277E+05    -0.123721436652252E+06
     0.114800000000000E+02     0.166666666666667E+01    -0.215895733769963E+05    -0.117752557247255E+06     0.576278144120132E+04     0.109037497640341E+06     0.000000000000000E+00    -0.212454572452468E+05    -0.118096673379005E+06
     0.123000000000000E+02     0.167948717948718E+01    -0.211060720771195E+05    -0.112026076728041E+06     0.520439754966290E+04     0.103499444236321E+06     0.000000000000000E+00    -0.208091343247534E+05    -0.112323014480407E+06
     0.131200000000000E+02     0.169230769230769E+01    -0.205564800484505E+05    -0.106221990396109E+06     0.453046150446997E+04     0.978964000039817E+05     0.000000000000000E+00    -0.203175508202892E+05    -0.106460919624271E+06
     0.139400000000000E+02     0.170512820512820E+01    -0.199302997304168E+05    -0.100401233328833E+06     0.376161927897063E+04     0.922986845331376E+05     0.000000000000000E+00    -0.197548451326795E+05    -0.100576687926570E+06
     0.147600000000000E+02     0.171794871794872E+01    -0.192157617072005E+05    -0.946289567100550E+05     0.292400679807293E+04     0.867822960663377E+05     0.000000000000000E+00    -0.191025586950103E+05    -0.947421597222452E+05
     0.155800000000000E+02     0.173076923076923E+01    -0.183997671737443E+05    -0.889745548719583E+05     0.204959441997069E+04     0.814279697925637E+05     0.000000000000000E+00    -0.183402940902876E+05    -0.890340279554150E+05
     0.164000000000000E+02     0.174358974358974E+01    -0.174678304017573E+05    -0.835116923369384E+05     0.117653141786933E+04     0.763198038267286E+05     0.000000000000000E+00    -0.174468778540499E+05    -0.835326448846458E+05
     0.000000000000000E+00     0.133846153846154E+01    -0.256313048543287E+05    -0.168774024804373E+06     0.713910980755922E-10     0.157530113806693E+06     0.000000000000000E+00    -0.256313048543287E+05    -0.168774024804373E+06
     0.840000000000000E+00     0.134871794871795E+01    -0.255560295328860E+05    -0.168282394148188E+06     0.100099602058389E+04     0.157081033132952E+06     0.000000000000000E+00    -0.255490095001466E+05    -0.168289414180927E+06
     0.168000000000000E+01     0.135897435897436E+01    -0.254513414421750E+05    -0.167266939308332E+06     0.197939817413102E+04     0.156142837920459E+06     0.000000000000000E+00    -0.254237192750327E+05    -0.167294561475474E+06
     0.252000000000000E+01     0.136923076923077E+01    -0.253184050866531E+05    -0.165733032337109E+06     0.291374542990529E+04     0.154718561692273E+06     0.000000000000000E+00    -0.252579679374225E+05    -0.165793469486339E+06
     0.336000000000000E+01     0.137948717948718E+01    -0.251580457167420E+05    -0.163690190421679E+06     0.378334399912750E+04     0.152814336650746E+06     0.000000000000000E+00    -0.250547986913102E+05    -0.163793437447111E+06
     0.420000000000000E+01     0.138974358974359E+01    -0.249706986707389E+05    -0.161152099716274E+06     0.456865671760055E+04     0.150439597132891E+06     0.000000000000000E+00    -0.248176000474706E+05    -0.161305198339543E+06
     0.504000000000000E+01     0.140000000000000E+01    -0.247563587167280E+05    -0.158136639174415E+06     0.525169242833445E+04     0.147607341960745E+06     0.000000000000000E+00    -0.245498990536141E+05    -0.158343098837529E+06
     0.588000000000000E+01     0.141025641025641E+01    -0.245145293944911E+05    -0.154665904381129E+06     0.581639536417140E+04     0.144334450618299E+06     0.000000000000000E+00    -0.242551148540605E+05    -0.154925318921559E+06
     0.672000000000000E+01     0.142051282051282E+01    -0.242441723574195E+05    -0.150766231385166E+06     0.624903453041084E+04     0.140642046407495E+06     0.000000000000000E+00    -0.239362763831471E+05    -0.151074127359438E+06
     0.756000000000000E+01     0.143076923076923E+01    -0.239436567144249E+05    -0.146468220531217E+06     0.653859308743448E+04     0.136555897452862E+06     0.000000000000000E+00    -0.235957090810732E+05    -0.146816168164569E+06
     0.840000000000000E+01     0.144102564102564E+01    -0.236107083718504E+05    -0.141806760292130E+06     0.667715773333142E+04     0.132106843343345E+06     0.000000000000000E+00    -0.232346970738627E+05    -0.142182771590118E+06
     0.924000000000000E+01     0.145128205128205E+01    -0.232423593753824E+05    -0.136821051101126E+06     0.666030808652313E+04     0.127331230911209E+06     0.000000000000000E+00    -0.228531296409181E+05    -0.137210280835591E+06
     0.100800000000000E+02     0.146153846153846E+01    -0.228348972519610E+05    -0.131554629184020E+06     0.648750606838857E+04     0.122271336611561E+06     0.000000000000000E+00    -0.224491445546484E+05    -0.131940381881332E+06
     0.109200000000000E+02     0.147179487179487E+01    -0.223838143516918E+05    -0.126055390391432E+06     0.616248528588920E+04     0.116975744536258E+06     0.000000000000000E+00    -0.220187868172077E+05    -0.126420417925916E+06
     0.117600000000000E+02     0.148205128205128E+01    -0.218837571897571E+05    -0.120375614031009E+06     0.569364041419405E+04     0.111499637652140E+06     0.000000000000000E+00    -0.215557105107851E+05    -0.120703660709981E+06
     0.126000000000000E+02     0.149230769230769E+01    -0.213284757883265E+05    -0.114571986699640E+06     0.509441657930482E+04     0.105904945173786E+06     0.000000000000000E+00    -0.210509651297832E+05    -0.114849497358184E+06
     0.134400000000000E+02     0.150256410256410E+01    -0.207107730184691E+05    -0.108705626115675E+06     0.438369874068085E+04     0.100260272111431E+06     0.000000000000000E+00    -0.204929266678943E+05    -0.108923472466250E+06
     0.142800000000000E+02     0.151282051282051E+01    -0.200224539420639E+05    -0.102842104951137E+06     0.358620107386425E+04     0.946405220684046E+05     0.000000000000000E+00    -0.198674567420784E+05    -0.102997102151122E+06
     0.151200000000000E+02     0.152307692307692E+01    -0.192542751537114E+05    -0.970514746639438E+05     0.273285635310492E+04     0.891261216503222E+05     0.000000000000000E+00    -0.191583936742294E+05    -0.971473561434258E+05
     0.159600000000000E+02     0.153333333333333E+01    -0.183958941226448E+05    -0.914082893301249E+05     0.186120533398563E+04     0.838017859133568E+05     0.000000000000000E+00    -0.183484797464646E+05    -0.914557037063052E+05
     0.168000000000000E+02     0.154358974358974E+01    -0.174358185346412E+05    -0.859916294760356E+05     0.101578613604705E+04     0.787548673117860E+05     0.000000000000000E+00    -0.174207710130363E+05    -0.860066769976404E+05
     0.000000000000000E+00     0.118974358974359E+01    -0.265054467230141E+05    -0.172093412059681E+06     0.408118169326757E-10     0.160490711306293E+06     0.000000000000000E+00    -0.265054467230141E+05    -0.172093412059681E+06
     0.860000000000000E+00     0.119743589743590E+01    -0.264401264598557E+05    -0.171648497087221E+06     0.103097039206025E+04     0.160084563808421E+06     0.000000000000000E+00    -0.264328070031999E+05    -0.171655816543877E+06
     0.172000000000000E+01     0.120512820512820E+01    -0.263355741194028E+05    -0.170658875501056E+06     0.203781194801020E+04     0.159173090750912E+06     0.000000000000000E+00    -0.263068064158169E+05    -0.170687643204642E+06
     0.258000000000000E+01     0.121282051282051E+01    -0.261928474778704E+05    -0.169130579743771E+06     0.299755450368937E+04     0.157759826265747E+06     0.000000000000000E+00    -0.261300132302751E+05    -0.169193413991367E+06
     0.344000000000000E+01     0.122051282051282E+01    -0.260128221463072E+05    -0.167074107613295E+06     0.388810168441636E+04     0.155851555360611E+06     0.000000000000000E+00    -0.259057348829494E+05    -0.167181194876652E+06
     0.430000000000000E+01     0.122820512820513E+01    -0.257961498431525E+05    -0.164504441906894E+06     0.468866954770744E+04     0.153458536376826E+06     0.000000000000000E+00    -0.256378423581343E+05    -0.164662749391913E+06
     0.516000000000000E+01     0.123589743589744E+01    -0.255432166667937E+05    -0.161441070065172E+06     0.538022522599514E+04     0.150594791610892E+06     0.000000000000000E+00    -0.253305452109057E+05    -0.161653741521060E+06
     0.602000000000000E+01     0.124358974358974E+01    -0.252541013681234E+05    -0.157908003816054E+06     0.594592556934683E+04     0.147278459601200E+06     0.000000000000000E+00    -0.249881213640485E+05    -0.158173983820129E+06
     0.688000000000000E+01     0.125128205128205E+01    -0.249285336230966E+05    -0.153933798818791E+06     0.637155578818332E+04     0.143532200210554E+06     0.000000000000000E+00    -0.246146071082078E+05    -0.154247725333680E+06
     0.774000000000000E+01     0.125897435897436E+01    -0.245658523052880E+05    -0.149551574307946E+06     0.664596809599743E+04     0.139383640599595E+06     0.000000000000000E+00    -0.242134543918472E+05    -0.149903972221387E+06
     0.860000000000000E+01     0.126666666666667E+01    -0.241649637584492E+05    -0.144799032737394E+06     0.676152035207259E+04     0.134865846118240E+06     0.000000000000000E+00    -0.237871648016084E+05    -0.145176831694234E+06
     0.946000000000000E+01     0.127435897435897E+01    -0.237243000690659E+05    -0.139718479424309E+06     0.671451470420139E+04     0.130017794545559E+06     0.000000000000000E+00    -0.233369130530747E+05    -0.140105866440301E+06
     0.103200000000000E+02     0.128205128205128E+01    -0.232417773389150E+05    -0.134356842193168E+06     0.650563623140422E+04     0.124884824362707E+06     0.000000000000000E+00    -0.228621779825243E+05    -0.134736441549558E+06
     0.111800000000000E+02     0.128974358974359E+01    -0.227147539576222E+05    -0.128765691019734E+06     0.614039158664781E+04     0.119519017181203E+06     0.000000000000000E+00    -0.223604068110704E+05    -0.129120038166286E+06
     0.120400000000000E+02     0.129743589743590E+01    -0.221399888752185E+05    -0.123001257675059E+06     0.562954763956383E+04     0.113979460607408E+06     0.000000000000000E+00    -0.218267498261741E+05    -0.123314496724103E+06
     0.129000000000000E+02     0.130512820512820E+01    -0.215135998746983E+05    -0.117124455369473E+06     0.498957011916747E+04     0.108332321062210E+06     0.000000000000000E+00    -0.212539183214218E+05    -0.117384136922750E+06
     0.137600000000000E+02     0.131282051282051E+01    -0.208310218445759E+05    -0.111200898396580E+06     0.424306225657606E+04     0.102650638885492E+06     0.000000000000000E+00    -0.206322381013419E+05    -0.111399682139815E+06
     0.146200000000000E+02     0.132051282051282E+01    -0.200869650514431E+05    -0.105300921777253E+06     0.341920342772756E+04     0.970137475450417E+05     0.000000000000000E+00    -0.199499899554408E+05    -0.105437896873255E+06
     0.154800000000000E+02     0.132820512820513E+01    -0.192753734125264E+05    -0.994996009036226E+05     0.255418779609929E+04     0.915062307400488E+05     0.000000000000000E+00    -0.191941351650703E+05    -0.995808391510786E+05
     0.163400000000000E+02     0.133589743589744E+01    -0.183893827682438E+05    -0.938767711830799E+05     0.169166295542636E+04     0.862163955329211E+05     0.000000000000000E+00    -0.183514918318667E+05    -0.939146621194570E+05
     0.172000000000000E+02     0.134358974358974E+01    -0.174212791547628E+05    -0.885170476822633E+05     0.883168572420380E+03     0.812344044129458E+05     0.000000000000000E+00    -0.174103099168000E+05    -0.885280169202262E+05
     0.000000000000000E+00     0.104102564102564E+01    -0.273820604066341E+05    -0.175411590145934E+06     0.909490686828944E-11     0.163449908021503E+06     0.000000000000000E+00    -0.273820604066341E+05    -0.175411590145934E+06
     0.880000000000000E+00     0.104615384615385E+01    -0.273265622041970E+05    -0.175013257475567E+06     0.106270429213324E+04     0.163086659933857E+06     0.000000000000000E+00    -0.273189157337960E+05    -0.175020903945968E+06
     0.176000000000000E+01     0.105128205128205E+01    -0.272211275384205E+05    -0.174049146266098E+06     0.209974409590173E+04     0.162202058765488E+06     0.000000000000000E+00    -0.271911058572378E+05    -0.174079167947281E+06
     0.264000000000000E+01     0.105641025641026E+01    -0.270667077181957E+05    -0.172525987618288E+06     0.308654165707401E+04     0.160800164203626E+06     0.000000000000000E+00    -0.270012429793673E+05    -0.172591452357116E+06
     0.352000000000000E+01     0.106153846153846E+01    -0.268642625188294E+05    -0.170455310498825E+06     0.399950596436556E+04     0.158888430707963E+06     0.000000000000000E+00    -0.267529487744550E+05    -0.170566624243199E+06
     0.440000000000000E+01     0.106666666666667E+01    -0.266147296920493E+05    -0.167853456100518E+06     0.481652530707195E+04     0.156477950355885E+06     0.000000000000000E+00    -0.264506670438623E+05    -0.168017518748705E+06
     0.528000000000000E+01     0.107179487179487E+01    -0.263189944760085E+05    -0.164741592202493E+06     0.551745983270212E+04     0.153583774226026E+06     0.000000000000000E+00    -0.260994194189081E+05    -0.164961167259594E+06
     0.616000000000000E+01     0.107692307692308E+01    -0.259778591052911E+05    -0.161145727530386E+06     0.608463410461153E+04     0.150225304048116E+06     0.000000000000000E+00    -0.257045097306440E+05    -0.161419076905034E+06
     0.704000000000000E+01     0.108205128205128E+01    -0.255920123209164E+05    -0.157096726116540E+06     0.650332965963542E+04     0.146426742744639E+06     0.000000000000000E+00    -0.252711845347801E+05    -0.157417553902676E+06
     0.792000000000000E+01     0.108717948717949E+01    -0.251619988803444E+05    -0.152630321660195E+06     0.676227756572197E+04     0.142217588534809E+06     0.000000000000000E+00    -0.248042596434907E+05    -0.152988060897048E+06
     0.880000000000000E+01     0.109230769230769E+01    -0.246881890674802E+05    -0.147787131887689E+06     0.685415097956554E+04     0.137633152017198E+06     0.000000000000000E+00    -0.243077257407068E+05    -0.148167595214463E+06
     0.968000000000000E+01     0.109743589743590E+01    -0.241707482026795E+05    -0.142612672912650E+06     0.677605770423989E+04     0.132715068513409E+06     0.000000000000000E+00    -0.237843507749855E+05    -0.142999070340345E+06
     0.105600000000000E+02     0.110256410256410E+01    -0.236096061527529E+05    -0.137157373596190E+06     0.653003274683138E+04     0.127511768264600E+06     0.000000000000000E+00    -0.232353035469780E+05    -0.137531676201965E+06
     0.114400000000000E+02     0.110769230769231E+01    -0.230044268409715E+05    -0.131476589907099E+06     0.612353087607216E+04     0.122078854210029E+06     0.000000000000000E+00    -0.226598325770890E+05    -0.131821184170982E+06
     0.123200000000000E+02     0.111282051282051E+01    -0.223545777570710E+05    -0.125630619282044E+06     0.556991917997340E+04     0.116479320909300E+06     0.000000000000000E+00    -0.220550476730032E+05    -0.125930149366112E+06
     0.132000000000000E+02     0.111794871794872E+01    -0.216590994672576E+05    -0.119684714985760E+06     0.488896962345850E+04     0.110783529986661E+06     0.000000000000000E+00    -0.214158685264223E+05    -0.119927945926595E+06
     0.140800000000000E+02     0.112307692307692E+01    -0.209166751242119E+05    -0.113709100471244E+06     0.410735160599629E+04     0.105068841845020E+06     0.000000000000000E+00    -0.207352226816939E+05    -0.113890552913762E+06
     0.149600000000000E+02     0.112820512820513E+01    -0.201255999770946E+05    -0.107778983739954E+06     0.325912451923427E+04     0.994188014193638E+05     0.000000000000000E+00    -0.200045864132834E+05    -0.107899997303765E+06
     0.158400000000000E+02     0.113333333333333E+01    -0.192837508815510E+05    -0.101974571702002E+06     0.238623030463177E+04     0.939218098745672E+05     0.000000000000000E+00    -0.192149480666441E+05    -0.102043374516908E+06
     0.167200000000000E+02     0.113846153846154E+01    -0.183885558097162E+05    -0.963810845363448E+05     0.153898601109321E+04     0.886693234608146E+05     0.000000000000000E+00    -0.183581996142909E+05    -0.964114407317701E+05
     0.176000000000000E+02     0.114358974358974E+01    -0.174369633602197E+05    -0.910887700509856E+05     0.776576352601262E+03     0.837538619241807E+05     0.000000000000000E+00    -0.174287761367437E+05    -0.910969572744616E+05
     0.000000000000000E+00     0.892307692307692E+00    -0.282567229630969E+05    -0.178728315726643E+06    -0.236603489893909E-10     0.166409064452473E+06     0.000000000000000E+00    -0.282567229630969E+05    -0.178728315726643E+06
     0.900000000000000E+00     0.894871794871795E+00    -0.282106894512674E+05    -0.178376428519805E+06     0.109631052325465E+04     0.166088762144489E+06     0.000000000000000E+00    -0.282026860763508E+05    -0.178384431894721E+06
     0.180000000000000E+01     0.897435897435897E+00    -0.281031031278151E+05    -0.177437520236314E+06     0.216542051142698E+04     0.165231293044187E+06     0.000000000000000E+00    -0.280717100935804E+05    -0.177468913270549E+06
     0.270000000000000E+01     0.899999999999999E+00    -0.279348138691680E+05    -0.175919059894379E+06     0.318103792932377E+04     0.163841265475954E+06     0.000000000000000E+00    -0.278664665199108E+05    -0.175987407243636E+06
     0.360000000000000E+01     0.902564102564102E+00    -0.277069080224265E+05    -0.173833658796126E+06     0.411797668819860E+04     0.161926815824800E+06     0.000000000000000E+00    -0.275909519356677E+05    -0.173949614882885E+06
     0.450000000000000E+01     0.905128205128205E+00    -0.274206917288628E+05    -0.171199078383890E+06     0.495270808107443E+04     0.159499873271930E+06     0.000000000000000E+00    -0.272502886474527E+05    -0.171369481465300E+06
     0.540000000000000E+01     0.907692307692307E+00    -0.270776742474210E+05    -0.168038238096499E+06     0.566391221806619E+04     0.156576514643096E+06     0.000000000000000E+00    -0.268504598100009E+05    -0.168265452533920E+06
     0.630000000000000E+01     0.910256410256410E+00    -0.266795512782164E+05    -0.164379223225564E+06     0.623302946170344E+04     0.153177398914913E+06     0.000000000000000E+00    -0.263979865003342E+05    -0.164660788003446E+06
     0.720000000000000E+01     0.912820512820512E+00    -0.262281882860359E+05    -0.160255292771760E+06     0.664481186225297E+04     0.149328266927374E+06     0.000000000000000E+00    -0.258995568036018E+05    -0.160583924254194E+06
     0.810000000000000E+01     0.915384615384615E+00    -0.257256038238366E+05    -0.155704887301121E+06     0.688787459304141E+04     0.145060486786169E+06     0.000000000000000E+00    -0.253616201869380E+05    -0.156068870938019E+06
     0.900000000000000E+01     0.917948717948717E+00    -0.251739528562468E+05    -0.150771636801319E+06     0.695524738577784E+04     0.140411618777984E+06     0.000000000000000E+00    -0.247899647300216E+05    -0.151155624927544E+06
     0.990000000000000E+01     0.920512820512820E+00    -0.245755100830646E+05    -0.145504368537957E+06     0.684492596587641E+04     0.135425964710512E+06     0.000000000000000E+00    -0.241893007495295E+05    -0.145890577871492E+06
     0.108000000000000E+02     0.923076923076922E+00    -0.239326532627582E+05    -0.139957114910852E+06     0.656042348777898E+04     0.130155054733055E+06     0.000000000000000E+00    -0.235628827377463E+05    -0.140326885435864E+06
     0.117000000000000E+02     0.925641025641025E+00    -0.232478465359656E+05    -0.134189121310324E+06     0.611132197027768E+04     0.124658009434818E+06     0.000000000000000E+00    -0.229122130536061E+05    -0.134524754792683E+06
     0.126000000000000E+02     0.928205128205128E+00    -0.225236237489941E+05    -0.128264853973480E+06     0.551382373183758E+04     0.119001696781783E+06     0.000000000000000E+00    -0.222368857057920E+05    -0.128551592016683E+06
     0.135000000000000E+02     0.930769230769231E+00    -0.217625717773202E+05    -0.122254007840507E+06     0.479130282591929E+04     0.113260584896268E+06     0.000000000000000E+00    -0.215346455648128E+05    -0.122481934053014E+06
     0.144000000000000E+02     0.933333333333333E+00    -0.209673138490889E+05    -0.116231514410950E+06     0.397485647630155E+04     0.107516180189409E+06     0.000000000000000E+00    -0.208017524593914E+05    -0.116397075800648E+06
     0.153000000000000E+02     0.935897435897435E+00    -0.201404928686140E+05    -0.110277549600007E+06     0.310385651240389E+04     0.101855952075637E+06     0.000000000000000E+00    -0.200337384537990E+05    -0.110384304014823E+06
     0.162000000000000E+02     0.938461538461538E+00    -0.192847547398775E+05    -0.104477541594812E+06     0.222650080460919E+04     0.963717106576947E+05     0.000000000000000E+00    -0.192266051635744E+05    -0.104535691171115E+06
     0.171000000000000E+02     0.941025641025640E+00    -0.184027316900293E+05    -0.989221787107214E+05     0.140036469958636E+04     0.911575708616685E+05     0.000000000000000E+00    -0.183783844226926E+05    -0.989465259780581E+05
     0.180000000000000E+02     0.943589743589743E+00    -0.174970255928868E+05    -0.937074172476023E+05     0.692952455612896E+03     0.863079684809402E+05     0.000000000000000E+00    -0.174907253574157E+05    -0.937137174830734E+05
     0.000000000000000E+00     0.743589743589743E+00    -0.291245711879929E+05    -0.182043343637634E+06    -0.573460994343913E-10     0.169369670509746E+06     0.000000000000000E+00    -0.291245711879929E+05    -0.182043343637634E+06
     0.920000000000000E+00     0.743589743589743E+00    -0.290873912369742E+05    -0.181737761941175E+06     0.113190031810072E+04     0.169092450024344E+06     0.000000000000000E+00    -0.290789986736998E+05    -0.181746154504449E+06
     0.184000000000000E+01     0.743589743589743E+00    -0.289761043521510E+05    -0.180823765930416E+06     0.223506312288002E+04     0.168262494808635E+06     0.000000000000000E+00    -0.289432133264231E+05    -0.180856656956144E+06
     0.276000000000000E+01     0.743589743589743E+00    -0.287914694382234E+05    -0.179309602841224E+06     0.328136649731441E+04     0.166884982942072E+06     0.000000000000000E+00    -0.287199680622787E+05    -0.179381104217168E+06
     0.368000000000000E+01     0.743589743589743E+00    -0.285347513363581E+05    -0.177209018066704E+06     0.424391971697662E+04     0.164968740725606E+06     0.000000000000000E+00    -0.284137068329071E+05    -0.177330062570155E+06
     0.460000000000000E+01     0.743589743589743E+00    -0.282077208241887E+05    -0.174541255157209E+06     0.509767884633354E+04     0.162526530932744E+06     0.000000000000000E+00    -0.280303529339770E+05    -0.174718623047420E+06
     0.552000000000000E+01     0.743589743589743E+00    -0.278126546158153E+05    -0.171331055820330E+06     0.582006233504434E+04     0.159575444043077E+06     0.000000000000000E+00    -0.275770220933351E+05    -0.171566688342810E+06
     0.644000000000000E+01     0.743589743589743E+00    -0.273523353618049E+05    -0.167608659920904E+06     0.639156661425848E+04     0.156137379335892E+06     0.000000000000000E+00    -0.270616701270359E+05    -0.167899325155673E+06
     0.736000000000000E+01     0.743589743589743E+00    -0.268300516491910E+05    -0.163409805481011E+06     0.679638169291384E+04     0.152239597641835E+06     0.000000000000000E+00    -0.264926883954285E+05    -0.163747168734774E+06
     0.828000000000000E+01     0.743589743589743E+00    -0.262495980014740E+05    -0.158775728679973E+06     0.702300675403473E+04     0.147915321161997E+06     0.000000000000000E+00    -0.258784645234430E+05    -0.159146862158004E+06
     0.920000000000000E+01     0.743589743589743E+00    -0.256152748786210E+05    -0.153753163854354E+06     0.706486575102996E+04     0.143204347458394E+06     0.000000000000000E+00    -0.252269313699436E+05    -0.154141507363032E+06
     0.101200000000000E+02     0.743589743589743E+00    -0.249318886770657E+05    -0.148394343497964E+06     0.692092300399094E+04     0.138153633786742E+06     0.000000000000000E+00    -0.245451346905975E+05    -0.148781097484432E+06
     0.110400000000000E+02     0.743589743589743E+00    -0.242047517297085E+05    -0.142756998261852E+06     0.659629879598971E+04     0.132817793732025E+06     0.000000000000000E+00    -0.238388600460780E+05    -0.143122889945483E+06
     0.119600000000000E+02     0.743589743589743E+00    -0.234396823059168E+05    -0.136904356954314E+06     0.610288496937701E+04     0.127259430460850E+06     0.000000000000000E+00    -0.231123727400749E+05    -0.137231666520156E+06
     0.128800000000000E+02     0.743589743589743E+00    -0.226430046115244E+05    -0.130905146540885E+06     0.545996052208034E+04     0.121549211098380E+06     0.000000000000000E+00    -0.223683404677997E+05    -0.131179810684610E+06
     0.138000000000000E+02     0.743589743589743E+00    -0.218215487888319E+05    -0.124833592144347E+06     0.469480720390206E+04     0.115765569327788E+06     0.000000000000000E+00    -0.216080240285991E+05    -0.125047116904580E+06
     0.147200000000000E+02     0.743589743589743E+00    -0.209826509166067E+05    -0.118769417044722E+06     0.384332511281741E+04     0.109993919336395E+06     0.000000000000000E+00    -0.208318288655695E+05    -0.118920239095759E+06
     0.156400000000000E+02     0.743589743589743E+00    -0.201341530100828E+05    -0.112797842679275E+06     0.295064829127258E+04     0.104325295987294E+06     0.000000000000000E+00    -0.200402919144953E+05    -0.112891703774863E+06
     0.165600000000000E+02     0.743589743589743E+00    -0.192844030209610E+05    -0.107009588642517E+06     0.207176032248278E+04     0.988544424865540E+05     0.000000000000000E+00    -0.192355025877382E+05    -0.107058489075740E+06
     0.174800000000000E+02     0.743589743589743E+00    -0.184422548374088E+05    -0.101500872686198E+06     0.127210992673035E+04     0.936776053827515E+05     0.000000000000000E+00    -0.184227760128993E+05    -0.101520351510708E+06
     0.184000000000000E+02     0.743589743589743E+00    -0.176170682840605E+05    -0.963734107193136E+05     0.628226557662743E+03     0.888907331335054E+05     0.000000000000000E+00    -0.176120573416270E+05    -0.963784216617470E+05
 zone I=   21 ,j=   21 ,f=point, T="    1"
     0.000000000000000E+00     0.743589743589743E+00    -0.291245711879929E+05    -0.182043343637634E+06    -0.573460994343913E-10     0.169369670509746E+06     0.000000000000000E+00    -0.291245711879929E+05    -0.182043343637634E+06
     0.920000000000000E+00     0.743589743589743E+00    -0.290873912369742E+05    -0.181737761941175E+06     0.113190031810072E+04     0.169092450024344E+06     0.000000000000000E+00    -0.290789986736998E+05    -0.181746154504449E+06
     0.184000000000000E+01     0.743589743589743E+00    -0.289761043521510E+05    -0.180823765930416E+06     0.223506312288002E+04     0.168262494808635E+06     0.000000000000000E+00    -0.289432133264231E+05    -0.180856656956144E+06
     0.276000000000000E+01     0.743589743589743E+00    -0.287914694382234E+05    -0.179309602841224E+06     0.328136649731441E+04     0.166884982942072E+06     0.000000000000000E+00    -0.287199680622787E+05    -0.179381104217168E+06
     0.368000000000000E+01     0.743589743589743E+00    -0.285347513363581E+05    -0.177209018066704E+06     0.424391971697662E+04     0.164968740725606E+06     0.000000000000000E+00    -0.284137068329071E+05    -0.177330062570155E+06
     0.460000000000000E+01     0.743589743589743E+00    -0.282077208241887E+05    -0.174541255157209E+06     0.509767884633354E+04     0.162526530932744E+06     0.000000000000000E+00    -0.280303529339770E+05    -0.174718623047420E+06
     0.552000000000000E+01     0.743589743589743E+00    -0.278126546158153E+05    -0.171331055820330E+06     0.582006233504434E+04     0.159575444043077E+06     0.000000000000000E+00    -0.275770220933351E+05    -0.171566688342810E+06
     0.644000000000000E+01     0.743589743589743E+00    -0.273523353618049E+05    -0.167608659920904E+06     0.639156661425848E+04     0.156137379335892E+06     0.000000000000000E+00    -0.270616701270359E+05    -0.167899325155673E+06
     0.736000000000000E+01     0.743589743589743E+00    -0.268300516491910E+05    -0.163409805481011E+06     0.679638169291384E+04     0.152239597641835E+06     0.000000000000000E+00    -0.264926883954285E+05    -0.163747168734774E+06
     0.828000000000000E+01     0.743589743589743E+00    -0.262495980014740E+05    -0.158775728679973E+06     0.702300675403473E+04     0.147915321161997E+06     0.000000000000000E+00    -0.258784645234430E+05    -0.159146862158004E+06
     0.920000000000000E+01     0.743589743589743E+00    -0.256152748786210E+05    -0.153753163854354E+06     0.706486575102996E+04     0.143204347458394E+06     0.000000000000000E+00    -0.252269313699436E+05    -0.154141507363032E+06
     0.101200000000000E+02     0.743589743589743E+00    -0.249318886770657E+05    -0.148394343497964E+06     0.692092300399094E+04     0.138153633786742E+06     0.000000000000000E+00    -0.245451346905975E+05    -0.148781097484432E+06
     0.110400000000000E+02     0.743589743589743E+00    -0.242047517297085E+05    -0.142756998261852E+06     0.659629879598971E+04     0.132817793732025E+06     0.000000000000000E+00    -0.238388600460780E+05    -0.143122889945483E+06
     0.119600000000000E+02     0.743589743589743E+00    -0.234396823059168E+05    -0.136904356954314E+06     0.610288496937701E+04     0.127259430460850E+06     0.000000000000000E+00    -0.231123727400749E+05    -0.137231666520156E+06
     0.128800000000000E+02     0.743589743589743E+00    -0.226430046115244E+05    -0.130905146540885E+06     0.545996052208034E+04     0.121549211098380E+06     0.000000000000000E+00    -0.223683404677997E+05    -0.131179810684610E+06
     0.138000000000000E+02     0.743589743589743E+00    -0.218215487888319E+05    -0.124833592144347E+06     0.469480720390206E+04     0.115765569327788E+06     0.000000000000000E+00    -0.216080240285991E+05    -0.125047116904580E+06
     0.147200000000000E+02     0.743589743589743E+00    -0.209826509166067E+05    -0.118769417044722E+06     0.384332511281741E+04     0.109993919336395E+06     0.000000000000000E+00    -0.208318288655695E+05    -0.118920239095759E+06
     0.156400000000000E+02     0.743589743589743E+00    -0.201341530100828E+05    -0.112797842679275E+06     0.295064829127258E+04     0.104325295987294E+06     0.000000000000000E+00    -0.200402919144953E+05    -0.112891703774863E+06
     0.165600000000000E+02     0.743589743589743E+00    -0.192844030209610E+05    -0.107009588642517E+06     0.207176032248278E+04     0.988544424865540E+05     0.000000000000000E+00    -0.192355025877382E+05    -0.107058489075740E+06
     0.174800000000000E+02     0.743589743589743E+00    -0.184422548374088E+05    -0.101500872686198E+06     0.127210992673035E+04     0.936776053827515E+05     0.000000000000000E+00    -0.184227760128993E+05    -0.101520351510708E+06
     0.184000000000000E+02     0.743589743589743E+00    -0.176170682840605E+05    -0.963734107193136E+05     0.628226557662743E+03     0.888907331335054E+05     0.000000000000000E+00    -0.176120573416270E+05    -0.963784216617470E+05
     0.000000000000000E+00     0.706410256410256E+00    -0.293398552806562E+05    -0.182871806482430E+06    -0.658994599110829E-10     0.170110235955778E+06     0.000000000000000E+00    -0.293398552806562E+05    -0.182871806482430E+06
     0.931500000000000E+00     0.706410256410256E+00    -0.293005299469844E+05    -0.182559141006978E+06     0.114901572895664E+04     0.169827094874891E+06     0.000000000000000E+00    -0.292919159909005E+05    -0.182567754963062E+06
     0.186300000000000E+01     0.706410256410256E+00    -0.291828475486815E+05    -0.181624020639389E+06     0.226818444954909E+04     0.168979440586304E+06     0.000000000000000E+00    -0.291491065183826E+05    -0.181657761669687E+06
     0.279450000000000E+01     0.706410256410256E+00    -0.289876888938866E+05    -0.180075073555960E+06     0.332831419844762E+04     0.167572644068237E+06     0.000000000000000E+00    -0.289144047817335E+05    -0.180148357668114E+06
     0.372600000000000E+01     0.706410256410256E+00    -0.287165219961650E+05    -0.177926680050525E+06     0.430152310239180E+04     0.165615868777674E+06     0.000000000000000E+00    -0.285926179066708E+05    -0.178050584140019E+06
     0.465750000000000E+01     0.706410256410256E+00    -0.283714020745079E+05    -0.175198972534446E+06     0.516189442322501E+04     0.163122381671226E+06     0.000000000000000E+00    -0.281901533970961E+05    -0.175380221211858E+06
     0.558900000000000E+01     0.706410256410256E+00    -0.279549715533329E+05    -0.171917835536621E+06     0.588613160292906E+04     0.160109974842133E+06     0.000000000000000E+00    -0.277147094578491E+05    -0.172158097632105E+06
     0.652050000000000E+01     0.706410256410256E+00    -0.274704600624832E+05    -0.168114905703477E+06     0.645421330865882E+04     0.156601483074073E+06     0.000000000000000E+00    -0.271748955213721E+05    -0.168410470244589E+06
     0.745200000000000E+01     0.706410256410256E+00    -0.269216844372285E+05    -0.163827571798978E+06     0.685004847777679E+04     0.152625376909744E+06     0.000000000000000E+00    -0.265797979146287E+05    -0.164169458321578E+06
     0.838350000000000E+01     0.706410256410256E+00    -0.263130487182646E+05    -0.159098974704617E+06     0.706213136288773E+04     0.148216403648995E+06     0.000000000000000E+00    -0.259385103773340E+05    -0.159473513045548E+06
     0.931500000000000E+01     0.706410256410256E+00    -0.256495441517130E+05    -0.153978007419422E+06     0.708419657687324E+04     0.143416239344672E+06     0.000000000000000E+00    -0.252596553725163E+05    -0.154367896198619E+06
     0.102465000000000E+02     0.706410256410256E+00    -0.249367491891217E+05    -0.148519315059951E+06     0.691587413792644E+04     0.138274102571244E+06     0.000000000000000E+00    -0.245509305364427E+05    -0.148905133712630E+06
     0.111780000000000E+02     0.706410256410256E+00    -0.241808294874645E+05    -0.142783294860297E+06     0.656334451458648E+04     0.132847264830107E+06     0.000000000000000E+00    -0.238187259501526E+05    -0.143145398397609E+06
     0.121095000000000E+02     0.706410256410256E+00    -0.233885379091416E+05    -0.136836096172084E+06     0.603999367077321E+04     0.127201372905768E+06     0.000000000000000E+00    -0.230678725915790E+05    -0.137156761489646E+06
     0.130410000000000E+02     0.706410256410256E+00    -0.225672145219791E+05    -0.130749620464469E+06     0.536706811082179E+04     0.121410477099438E+06     0.000000000000000E+00    -0.223015995309608E+05    -0.131015235455487E+06
     0.139725000000000E+02     0.706410256410256E+00    -0.217247865992290E+05    -0.124601521324142E+06     0.457432992451727E+04     0.115556641917033E+06     0.000000000000000E+00    -0.215217932982274E+05    -0.124804514625144E+06
     0.149040000000000E+02     0.706410256410256E+00    -0.208697686195699E+05    -0.118475204455326E+06     0.370071183212921E+04     0.109729016276553E+06     0.000000000000000E+00    -0.207296571930339E+05    -0.118615315881862E+06
     0.158355000000000E+02     0.706410256410256E+00    -0.200112622671060E+05    -0.112459827679775E+06     0.279497222944629E+04     0.104022285892803E+06     0.000000000000000E+00    -0.199268397283301E+05    -0.112544250218551E+06
     0.167670000000000E+02     0.706410256410256E+00    -0.191589564313678E+05    -0.106650300936777E+06     0.191635023281090E+04     0.985345676757576E+05     0.000000000000000E+00    -0.191170021320903E+05    -0.106692255236054E+06
     0.176985000000000E+02     0.706410256410256E+00    -0.183231272073120E+05    -0.101147286283151E+06     0.113522072415378E+04     0.933651010717500E+05     0.000000000000000E+00    -0.183075703445446E+05    -0.101162843145918E+06
     0.186300000000000E+02     0.706410256410256E+00    -0.175146378953211E+05    -0.960571978932506E+05     0.533749396028602E+03     0.886126144215434E+05     0.000000000000000E+00    -0.175110108775296E+05    -0.960608249110421E+05
     0.000000000000000E+00     0.669230769230769E+00    -0.295542955396302E+05    -0.183700143951154E+06    -0.745018264135844E-10     0.170851019685320E+06     0.000000000000000E+00    -0.295542955396302E+05    -0.183700143951154E+06
     0.943000000000000E+00     0.669230769230769E+00    -0.295127520298953E+05    -0.183380329688488E+06     0.116630035534140E+04     0.170561925473818E+06     0.000000000000000E+00    -0.295039121014631E+05    -0.183389169616920E+06
     0.188600000000000E+01     0.669230769230769E+00    -0.293884590157477E+05    -0.182423893908498E+06     0.230161330965186E+04     0.169696475313772E+06     0.000000000000000E+00    -0.293538511739223E+05    -0.182458501750323E+06
     0.282900000000000E+01     0.669230769230769E+00    -0.291824290423605E+05    -0.180839857635212E+06     0.337564795260774E+04     0.168260235819892E+06     0.000000000000000E+00    -0.291073297919762E+05    -0.180914956885596E+06
     0.377200000000000E+01     0.669230769230769E+00    -0.288963496850219E+05    -0.178643255908674E+06     0.435950635530038E+04     0.166262713204581E+06     0.000000000000000E+00    -0.287695409536335E+05    -0.178770064640062E+06
     0.471500000000000E+01     0.669230769230769E+00    -0.285325835491353E+05    -0.175855137784947E+06     0.522638006094350E+04     0.163717688548250E+06     0.000000000000000E+00    -0.283474064855278E+05    -0.176040314848555E+06
     0.565800000000000E+01     0.669230769230769E+00    -0.280941682702196E+05    -0.172502566336113E+06     0.595224657558061E+04     0.160643671756899E+06     0.000000000000000E+00    -0.278492431035882E+05    -0.172747491502744E+06
     0.660100000000000E+01     0.669230769230769E+00    -0.275848165139090E+05    -0.168618618650269E+06     0.651656585879252E+04     0.157064457765309E+06     0.000000000000000E+00    -0.272843541261436E+05    -0.168919081038035E+06
     0.754400000000000E+01     0.669230769230769E+00    -0.270089159759528E+05    -0.164242385831534E+06     0.690297681440477E+04     0.153009762152345E+06     0.000000000000000E+00    -0.266625636682456E+05    -0.164588738139241E+06
     0.848700000000000E+01     0.669230769230769E+00    -0.263715293822159E+05    -0.159418973000041E+06     0.709999378119506E+04     0.148515905272367E+06     0.000000000000000E+00    -0.259937155211410E+05    -0.159796786861116E+06
     0.943000000000000E+01     0.669230769230769E+00    -0.256783944886781E+05    -0.154199499291944E+06     0.710170302360075E+04     0.143626503508696E+06     0.000000000000000E+00    -0.252871659341887E+05    -0.154590727846434E+06
     0.103730000000000E+02     0.669230769230769E+00    -0.249359240814349E+05    -0.148641097859414E+06     0.690845922242627E+04     0.138393112464194E+06     0.000000000000000E+00    -0.245513089632011E+05    -0.149025712977647E+06
     0.113160000000000E+02     0.669230769230769E+00    -0.241512059766970E+05    -0.142806915870638E+06     0.652758196555062E+04     0.132875749139844E+06     0.000000000000000E+00    -0.237931857191791E+05    -0.143164936128156E+06
     0.122590000000000E+02     0.669230769230769E+00    -0.233320030207901E+05    -0.136766114509825E+06     0.597405223863477E+04     0.127143198585853E+06     0.000000000000000E+00    -0.230182450548524E+05    -0.137079872475763E+06
     0.132020000000000E+02     0.669230769230769E+00    -0.224867530901555E+05    -0.130593868977199E+06     0.527120891582919E+04     0.121272987604396E+06     0.000000000000000E+00    -0.222303416929754E+05    -0.130850280374379E+06
     0.141450000000000E+02     0.669230769230769E+00    -0.216245690913498E+05    -0.124371368489003E+06     0.445144525048123E+04     0.115350891335055E+06     0.000000000000000E+00    -0.214320734577629E+05    -0.124563864122590E+06
     0.150880000000000E+02     0.669230769230769E+00    -0.207552389610449E+05    -0.118185816277497E+06     0.355690536584261E+04     0.109469845081681E+06     0.000000000000000E+00    -0.206255593539946E+05    -0.118315495884547E+06
     0.160310000000000E+02     0.669230769230769E+00    -0.198892256660277E+05    -0.112130429590960E+06     0.264018074577686E+04     0.103728196662215E+06     0.000000000000000E+00    -0.198137187041417E+05    -0.112205936552846E+06
     0.169740000000000E+02     0.669230769230769E+00    -0.190376672032009E+05    -0.106304439693688E+06     0.176500672546682E+04     0.982274089663395E+05     0.000000000000000E+00    -0.190019837999215E+05    -0.106340123096968E+06
     0.179170000000000E+02     0.669230769230769E+00    -0.182123765995821E+05    -0.100813091865998E+06     0.100695898212203E+04     0.930696838768154E+05     0.000000000000000E+00    -0.182001029074610E+05    -0.100825365558119E+06
     0.188600000000000E+02     0.669230769230769E+00    -0.174258419123043E+05    -0.957676454042206E+05     0.454150025686216E+03     0.883566000943398E+05     0.000000000000000E+00    -0.174232092780545E+05    -0.957702780384705E+05
     0.000000000000000E+00     0.632051282051282E+00    -0.297678023832092E+05    -0.184528352175569E+06    -0.831512566304903E-10     0.171592049039852E+06     0.000000000000000E+00    -0.297678023832092E+05    -0.184528352175569E+06
     0.954500000000000E+00     0.632051282051282E+00    -0.297239668501931E+05    -0.184201324751482E+06     0.118375776508900E+04     0.171296970265609E+06     0.000000000000000E+00    -0.297148962641221E+05    -0.184210395337553E+06
     0.190900000000000E+01     0.632051282051282E+00    -0.295928451245246E+05    -0.183223384463339E+06     0.233535620167623E+04     0.170413630684039E+06     0.000000000000000E+00    -0.295573532949560E+05    -0.183258876292908E+06
     0.286350000000000E+01     0.632051282051282E+00    -0.293755918263441E+05    -0.181603957263487E+06     0.342337598945000E+04     0.168947795119619E+06     0.000000000000000E+00    -0.292986443913260E+05    -0.181680904698505E+06
     0.381800000000000E+01     0.632051282051282E+00    -0.290741313225524E+05    -0.179358753072507E+06     0.441787782447914E+04     0.166909317920308E+06     0.000000000000000E+00    -0.289443721575490E+05    -0.179488512237510E+06
     0.477250000000000E+01     0.632051282051282E+00    -0.286911577268105E+05    -0.176509765779211E+06     0.529114242740321E+04     0.164312504032421E+06     0.000000000000000E+00    -0.285020042128948E+05    -0.176698919293127E+06
     0.572700000000000E+01     0.632051282051282E+00    -0.282301348995398E+05    -0.173085273240645E+06     0.601841055162267E+04     0.161176597287670E+06     0.000000000000000E+00    -0.279805134149559E+05    -0.173334894725229E+06
     0.668150000000000E+01     0.632051282051282E+00    -0.276952964479220E+05    -0.169119837282086E+06     0.657862299148917E+04     0.157526377538170E+06     0.000000000000000E+00    -0.273899389969691E+05    -0.169425194733039E+06
     0.763600000000000E+01     0.632051282051282E+00    -0.270916457258991E+05    -0.164654303697042E+06     0.695516059049574E+04     0.153392841122424E+06     0.000000000000000E+00    -0.267408875459509E+05    -0.165005061876990E+06
     0.859050000000000E+01     0.632051282051282E+00    -0.264249558341733E+05    -0.159735802247256E+06     0.713658424946705E+04     0.148813930111202E+06     0.000000000000000E+00    -0.260439987864612E+05    -0.160116759294968E+06
     0.954500000000000E+01     0.632051282051282E+00    -0.257017696202074E+05    -0.154417746662701E+06     0.711737493474962E+04     0.143835264013681E+06     0.000000000000000E+00    -0.253094090114090E+05    -0.154810107271499E+06
     0.104995000000000E+02     0.632051282051282E+00    -0.249293996782241E+05    -0.148759834641583E+06     0.689867368640207E+04     0.138510812187914E+06     0.000000000000000E+00    -0.245462555888709E+05    -0.149142978730936E+06
     0.114540000000000E+02     0.632051282051282E+00    -0.241159283492069E+05    -0.142828047850340E+06     0.648902162638534E+04     0.132903425424894E+06     0.000000000000000E+00    -0.237622800885922E+05    -0.143181696110955E+06
     0.124085000000000E+02     0.632051282051282E+00    -0.232702077208991E+05    -0.136694651923643E+06     0.590509996675295E+04     0.127085121490097E+06     0.000000000000000E+00    -0.229636053754913E+05    -0.137001254269051E+06
     0.133630000000000E+02     0.632051282051282E+00    -0.224018596278046E+05    -0.130438196464394E+06     0.517247001784120E+04     0.121136995103167E+06     0.000000000000000E+00    -0.221547816599203E+05    -0.130685274432279E+06
     0.143175000000000E+02     0.632051282051282E+00    -0.215212756511877E+05    -0.124143515043728E+06     0.432631319645938E+04     0.115148607386824E+06     0.000000000000000E+00    -0.213392114260996E+05    -0.124325579268816E+06
     0.152720000000000E+02     0.632051282051282E+00    -0.206396171190727E+05    -0.117901725201012E+06     0.341217103408011E+04     0.109216724304784E+06     0.000000000000000E+00    -0.205200575402988E+05    -0.118021284779786E+06
     0.162265000000000E+02     0.632051282051282E+00    -0.197688151062445E+05    -0.111810228443845E+06     0.248668518502944E+04     0.103443357988344E+06     0.000000000000000E+00    -0.197016812365123E+05    -0.111877362313577E+06
     0.171810000000000E+02     0.632051282051282E+00    -0.189215704342483E+05    -0.105972710248058E+06     0.161833743467716E+04     0.979332838829972E+05     0.000000000000000E+00    -0.188914948772946E+05    -0.106002785805012E+06
     0.181355000000000E+02     0.632051282051282E+00    -0.181113536713893E+05    -0.100499140057715E+06     0.888189707627029E+03     0.927916454092980E+05     0.000000000000000E+00    -0.181017795666845E+05    -0.100508714162420E+06
     0.190900000000000E+02     0.632051282051282E+00    -0.173524051327333E+05    -0.955057712851127E+05     0.390624075906975E+03     0.881229892724217E+05     0.000000000000000E+00    -0.173504527746394E+05    -0.955077236432066E+05
     0.000000000000000E+00     0.594871794871795E+00    -0.299802843412278E+05    -0.185356427284175E+06    -0.918457732980900E-10     0.172333351938274E+06     0.000000000000000E+00    -0.299802843412278E+05    -0.185356427284175E+06
     0.966000000000000E+00     0.594871794871795E+00    -0.299340818946403E+05    -0.185022122963769E+06     0.120139151800348E+04     0.172032258278836E+06     0.000000000000000E+00    -0.299247758580996E+05    -0.185031429000310E+06
     0.193200000000000E+01     0.594871794871795E+00    -0.297959104059240E+05    -0.184022491046610E+06     0.236941959505044E+04     0.171130938990207E+06     0.000000000000000E+00    -0.297595170376937E+05    -0.184058884414840E+06
     0.289800000000000E+01     0.594871794871795E+00    -0.295670774282194E+05    -0.182367374664877E+06     0.347150646438930E+04     0.169635359504159E+06     0.000000000000000E+00    -0.294882481112030E+05    -0.182446203981893E+06
     0.386400000000000E+01     0.594871794871795E+00    -0.292497622167606E+05    -0.180073179038869E+06     0.447664570767895E+04     0.167555727448436E+06     0.000000000000000E+00    -0.291170060902595E+05    -0.180205935165370E+06
     0.483000000000000E+01     0.594871794871795E+00    -0.288470157288752E+05    -0.177162871477004E+06     0.535618792919372E+04     0.164906881159544E+06     0.000000000000000E+00    -0.286538372513339E+05    -0.177356049954545E+06
     0.579600000000000E+01     0.594871794871795E+00    -0.283627606239847E+05    -0.173665981375819E+06     0.608462643002862E+04     0.161708814402701E+06     0.000000000000000E+00    -0.281084098649777E+05    -0.173920332134826E+06
     0.676200000000000E+01     0.594871794871795E+00    -0.278017912636040E+05    -0.169618600219972E+06     0.664038288230446E+04     0.157987316816187E+06     0.000000000000000E+00    -0.274915429149804E+05    -0.169928848568596E+06
     0.772800000000000E+01     0.594871794871795E+00    -0.271697737113417E+05    -0.165063381582240E+06     0.700659300337302E+04     0.153774701605355E+06     0.000000000000000E+00    -0.268146720566255E+05    -0.165418483236956E+06
     0.869400000000000E+01     0.594871794871795E+00    -0.264732457329000E+05    -0.160049541123518E+06     0.717189223002223E+04     0.149110581906046E+06     0.000000000000000E+00    -0.260892808313176E+05    -0.160433506025100E+06
     0.966000000000000E+01     0.594871794871795E+00    -0.257196167960750E+05    -0.154632856592822E+06     0.713120139268130E+04     0.144042644069221E+06     0.000000000000000E+00    -0.253263339803628E+05    -0.155026139408534E+06
     0.106260000000000E+02     0.594871794871795E+00    -0.249171680707560E+05    -0.148875667827286E+06     0.688651238962592E+04     0.138627348879886E+06     0.000000000000000E+00    -0.245357615351819E+05    -0.149257074362860E+06
     0.115920000000000E+02     0.594871794871795E+00    -0.240750524289262E+05    -0.142846876752166E+06     0.644767386118339E+04     0.132930469775924E+06     0.000000000000000E+00    -0.237260580325894E+05    -0.143195871148503E+06
     0.125580000000000E+02     0.594871794871795E+00    -0.232032944446625E+05    -0.136621947380836E+06     0.583317686393780E+04     0.127027351241828E+06     0.000000000000000E+00    -0.229040806684137E+05    -0.136921161157085E+06
     0.135240000000000E+02     0.594871794871795E+00    -0.223127903941353E+05    -0.130282905814788E+06     0.507094054493518E+04     0.121002745040615E+06     0.000000000000000E+00    -0.220751508827489E+05    -0.130520545326174E+06
     0.144900000000000E+02     0.594871794871795E+00    -0.214153082556086E+05    -0.123918340243635E+06     0.419909781588870E+04     0.114950068677585E+06     0.000000000000000E+00    -0.212435774233858E+05    -0.124090071075858E+06
     0.154560000000000E+02     0.594871794871795E+00    -0.205234877094403E+05    -0.117623400945111E+06     0.326678102738376E+04     0.108969955257663E+06     0.000000000000000E+00    -0.204137058787947E+05    -0.117733182775757E+06
     0.164220000000000E+02     0.594871794871795E+00    -0.196508401380815E+05    -0.111499800285067E+06     0.233490764308322E+04     0.103168074577446E+06     0.000000000000000E+00    -0.195915223723096E+05    -0.111559118050838E+06
     0.173880000000000E+02     0.594871794871795E+00    -0.188117486260774E+05    -0.105655812717473E+06     0.147696591393254E+04     0.976524774010789E+05     0.000000000000000E+00    -0.187866369763776E+05    -0.105680924367173E+06
     0.183540000000000E+02     0.594871794871795E+00    -0.180214679600666E+05    -0.100206274784422E+06     0.779800552364943E+03     0.925312428852335E+05     0.000000000000000E+00    -0.180140695832986E+05    -0.100213673161190E+06
     0.193200000000000E+02     0.594871794871795E+00    -0.172961246287813E+05    -0.952725851161227E+05     0.344398406506544E+03     0.879120624646911E+05     0.000000000000000E+00    -0.172946035550111E+05    -0.952741061898929E+05
     0.000000000000000E+00     0.557692307692307E+00    -0.301916480381923E+05    -0.186184365402601E+06    -0.100583364052044E-09     0.173074956886263E+06     0.000000000000000E+00    -0.301916480381923E+05    -0.186184365402601E+06
     0.977500000000000E+00     0.557692307692307E+00    -0.301430027557841E+05    -0.185842721095703E+06     0.121920516521768E+04     0.172767819135871E+06     0.000000000000000E+00    -0.301334563666371E+05    -0.185852267484850E+06
     0.195500000000000E+01     0.557692307692307E+00    -0.299975575353136E+05    -0.184821212418990E+06     0.240380992861605E+04     0.171848433136132E+06     0.000000000000000E+00    -0.299602446974958E+05    -0.184858525256808E+06
     0.293250000000000E+01     0.557692307692307E+00    -0.297567842570445E+05    -0.183130112104406E+06     0.352004745572122E+04     0.170322967136277E+06     0.000000000000000E+00    -0.296760387035644E+05    -0.183210857657887E+06
     0.391000000000000E+01     0.557692307692307E+00    -0.294231360547491E+05    -0.180786541371857E+06     0.453581804675059E+04     0.168201986935061E+06     0.000000000000000E+00    -0.292873357034373E+05    -0.180922341723169E+06
     0.488750000000000E+01     0.557692307692307E+00    -0.290000473157093E+05    -0.177814469929211E+06     0.542152270395835E+04     0.165500873545862E+06     0.000000000000000E+00    -0.288027949297493E+05    -0.178011722315171E+06
     0.586500000000000E+01     0.557692307692307E+00    -0.284919336807156E+05    -0.174244715972298E+06     0.615089669898111E+04     0.162240386550452E+06     0.000000000000000E+00    -0.282328210227051E+05    -0.174503828630309E+06
     0.684250000000000E+01     0.557692307692307E+00    -0.279041920440677E+05    -0.170114946184912E+06     0.670184314018348E+04     0.158447350326993E+06     0.000000000000000E+00    -0.275890584064128E+05    -0.170430079822567E+06
     0.782000000000000E+01     0.557692307692307E+00    -0.272432005535744E+05    -0.165469675738808E+06     0.705726654000364E+04     0.154155431421897E+06     0.000000000000000E+00    -0.268838203637141E+05    -0.165829055928669E+06
     0.879750000000000E+01     0.557692307692307E+00    -0.265163186105536E+05    -0.160360268293704E+06     0.720590638229902E+04     0.149405964049990E+06     0.000000000000000E+00    -0.261294841959335E+05    -0.160747102708324E+06
     0.977500000000000E+01     0.557692307692307E+00    -0.257318868698320E+05    -0.154844935997279E+06     0.714317068969182E+04     0.144248766001451E+06     0.000000000000000E+00    -0.253378937200783E+05    -0.155238929147033E+06
     0.107525000000000E+02     0.557692307692307E+00    -0.248992272397455E+05    -0.148988739485177E+06     0.687196959091466E+04     0.138742868026033E+06     0.000000000000000E+00    -0.245198235492468E+05    -0.149368143175676E+06
     0.117300000000000E+02     0.557692307692307E+00    -0.240286428821390E+05    -0.142863587881002E+06     0.640354888815616E+04     0.132957055480428E+06     0.000000000000000E+00    -0.236845769426740E+05    -0.143207653820467E+06
     0.127075000000000E+02     0.557692307692307E+00    -0.231314182123665E+05    -0.136548238796322E+06     0.575832362440654E+04     0.126970092864513E+06     0.000000000000000E+00    -0.228398101814815E+05    -0.136839846827207E+06
     0.136850000000000E+02     0.557692307692307E+00    -0.222198188992910E+05    -0.130128298330665E+06     0.496671165080322E+04     0.120870475425714E+06     0.000000000000000E+00    -0.219916979436300E+05    -0.130356419286326E+06
     0.146625000000000E+02     0.557692307692307E+00    -0.213070918652846E+05    -0.123696221071524E+06     0.406996719397643E+04     0.114755542019772E+06     0.000000000000000E+00    -0.211455655164730E+05    -0.123857747420336E+06
     0.156400000000000E+02     0.557692307692307E+00    -0.204074652862283E+05    -0.117351310094354E+06     0.312101442339482E+04     0.108729821237410E+06     0.000000000000000E+00    -0.203070911358093E+05    -0.117451684244773E+06
     0.166175000000000E+02     0.557692307692307E+00    -0.195361485915123E+05    -0.111199716962571E+06     0.218528101871102E+04     0.102902625427259E+06     0.000000000000000E+00    -0.194840805547219E+05    -0.111251784999361E+06
     0.175950000000000E+02     0.557692307692307E+00    -0.187093324640358E+05    -0.105354441727554E+06     0.134153173710728E+04     0.973852419945427E+05     0.000000000000000E+00    -0.186885664197852E+05    -0.105375207771804E+06
     0.185725000000000E+02     0.557692307692307E+00    -0.179441888402071E+05    -0.999353329286441E+05     0.682701980641064E+03     0.922887015879762E+05     0.000000000000000E+00    -0.179385046935833E+05    -0.999410170752679E+05
     0.195500000000000E+02     0.557692307692307E+00    -0.172588709099433E+05    -0.950690875931459E+05     0.316731363590610E+03     0.877240895470178E+05     0.000000000000000E+00    -0.172575816564393E+05    -0.950703768466500E+05
     0.000000000000000E+00     0.520512820512820E+00    -0.304017981764117E+05    -0.187012162653987E+06    -0.109361981279058E-09     0.173816892986096E+06     0.000000000000000E+00    -0.304017981764117E+05    -0.187012162653987E+06
     0.989000000000000E+00     0.520512820512820E+00    -0.303506331154658E+05    -0.186663115920707E+06     0.123720224855190E+04     0.173503683063067E+06     0.000000000000000E+00    -0.303408413605279E+05    -0.186672907675645E+06
     0.197800000000000E+01     0.520512820512820E+00    -0.301976873172359E+05    -0.185619547360021E+06     0.243853360910102E+04     0.172566146647574E+06     0.000000000000000E+00    -0.301594366937337E+05    -0.185657797983523E+06
     0.296700000000000E+01     0.520512820512820E+00    -0.299446089355463E+05    -0.183892171889391E+06     0.356900696174296E+04     0.171010656817179E+06     0.000000000000000E+00    -0.298619121283558E+05    -0.183974868696582E+06
     0.395600000000000E+01     0.520512820512820E+00    -0.295941448934376E+05    -0.181498847704592E+06     0.459540272277057E+04     0.168848142162299E+06     0.000000000000000E+00    -0.294552523203497E+05    -0.181637740277680E+06
     0.494500000000000E+01     0.520512820512820E+00    -0.291501408831665E+05    -0.178464576279703E+06     0.548715261277249E+04     0.166094535401927E+06     0.000000000000000E+00    -0.289487652320906E+05    -0.178665951930779E+06
     0.593400000000000E+01     0.520512820512820E+00    -0.286175413662060E+05    -0.174821502367115E+06     0.621722342473164E+04     0.162771377672450E+06     0.000000000000000E+00    -0.283536345606253E+05    -0.175085409172695E+06
     0.692300000000000E+01     0.520512820512820E+00    -0.280023895732455E+05    -0.170608913997526E+06     0.676300079212390E+04     0.158906553112019E+06     0.000000000000000E+00    -0.276823777621502E+05    -0.170928925808621E+06
     0.791200000000000E+01     0.520512820512820E+00    -0.273118275041904E+05    -0.165873242479946E+06     0.710717295701665E+04     0.154535118431311E+06     0.000000000000000E+00    -0.269482363204480E+05    -0.166236833663688E+06
     0.890100000000000E+01     0.520512820512820E+00    -0.265540959281625E+05    -0.160668062401690E+06     0.723861453816732E+04     0.149700179579603E+06     0.000000000000000E+00    -0.261645333582818E+05    -0.161057624971570E+06
     0.989000000000000E+01     0.520512820512820E+00    -0.257385343834996E+05    -0.155054091628384E+06     0.715327029912205E+04     0.144453751222152E+06     0.000000000000000E+00    -0.253440446952899E+05    -0.155448581316594E+06
     0.108790000000000E+02     0.520512820512820E+00    -0.248755811777560E+05    -0.149099191303964E+06     0.685503891631420E+04     0.138857513391391E+06     0.000000000000000E+00    -0.244984441251447E+05    -0.149476328356576E+06
     0.118680000000000E+02     0.520512820512820E+00    -0.239767733877020E+05    -0.142878365850673E+06     0.635665674716299E+04     0.132983352887649E+06     0.000000000000000E+00    -0.236379028066114E+05    -0.143217236431764E+06
     0.128570000000000E+02     0.520512820512820E+00    -0.230547468593245E+05    -0.136473762969064E+06     0.568058159817203E+04     0.126913546540048E+06     0.000000000000000E+00    -0.227709455602110E+05    -0.136757564268177E+06
     0.138460000000000E+02     0.520512820512820E+00    -0.221232362078261E+05    -0.129974673637997E+06     0.485987649302796E+04     0.120740416432382E+06     0.000000000000000E+00    -0.219046889433454E+05    -0.130193220902478E+06
     0.148350000000000E+02     0.520512820512820E+00    -0.211970748176262E+05    -0.123477532114644E+06     0.393909344069899E+04     0.114565281838874E+06     0.000000000000000E+00    -0.210455941618398E+05    -0.123629012770430E+06
     0.158240000000000E+02     0.520512820512820E+00    -0.202921948423599E+05    -0.117085915934483E+06     0.297515720353351E+04     0.108496586782514E+06     0.000000000000000E+00    -0.202008334051329E+05    -0.117177277371710E+06
     0.168130000000000E+02     0.520512820512820E+00    -0.194256272048790E+05    -0.110910545911304E+06     0.203824906535865E+04     0.102647263219441E+06     0.000000000000000E+00    -0.193802383128121E+05    -0.110955934803371E+06
     0.178020000000000E+02     0.520512820512820E+00    -0.186155015972512E+05    -0.105069286137203E+06     0.121269059957888E+04     0.971317979894352E+05     0.000000000000000E+00    -0.185984944846505E+05    -0.105086293249804E+06
     0.187910000000000E+02     0.520512820512820E+00    -0.178810464807607E+05    -0.996871439825863E+05     0.597827437274582E+03     0.920642180029754E+05     0.000000000000000E+00    -0.178766778753516E+05    -0.996915125879954E+05
     0.197800000000000E+02     0.520512820512820E+00    -0.172425890859077E+05    -0.948962700961690E+05     0.308913035300685E+03     0.875593390066822E+05     0.000000000000000E+00    -0.172413602226776E+05    -0.948974989593991E+05
     0.000000000000000E+00     0.483333333333333E+00    -0.306106375191297E+05    -0.187839815159379E+06    -0.118179541968558E-09     0.174559189946943E+06     0.000000000000000E+00    -0.306106375191297E+05    -0.187839815159379E+06
     0.100050000000000E+01     0.483333333333333E+00    -0.305568747283296E+05    -0.187483304215792E+06     0.125538629987268E+04     0.174239880901430E+06     0.000000000000000E+00    -0.305468324816518E+05    -0.187493346462469E+06
     0.200100000000000E+01     0.483333333333333E+00    -0.303961986701266E+05    -0.186417494668979E+06     0.247359700959265E+04     0.173284113683871E+06     0.000000000000000E+00    -0.303569915546569E+05    -0.186456701784449E+06
     0.300150000000000E+01     0.483333333333333E+00    -0.301304462871140E+05    -0.184653556370792E+06     0.361839289787430E+04     0.171698467999506E+06     0.000000000000000E+00    -0.300457625409777E+05    -0.184738240116928E+06
     0.400200000000000E+01     0.483333333333333E+00    -0.297626791502807E+05    -0.182210105740978E+06     0.465540745116692E+04     0.169494239562419E+06     0.000000000000000E+00    -0.296206456276489E+05    -0.182352139263610E+06
     0.500250000000000E+01     0.483333333333333E+00    -0.292971834590111E+05    -0.179113205767187E+06     0.555308323252190E+04     0.166687921547120E+06     0.000000000000000E+00    -0.290916347956581E+05    -0.179318754430540E+06
     0.600300000000000E+01     0.483333333333333E+00    -0.287394700410851E+05    -0.175396366004969E+06     0.628360824046012E+04     0.163301852216792E+06     0.000000000000000E+00    -0.284707372620771E+05    -0.175665098783977E+06
     0.700350000000000E+01     0.483333333333333E+00    -0.280962743526784E+05    -0.171100542577770E+06     0.682385226783932E+04     0.159365000536727E+06     0.000000000000000E+00    -0.277713930572193E+05    -0.171425423873229E+06
     0.800400000000000E+01     0.483333333333333E+00    -0.273755564783621E+05    -0.166274138176940E+06     0.715630326072149E+04     0.154913850534769E+06     0.000000000000000E+00    -0.270078245049286E+05    -0.166641870150374E+06
     0.900450000000000E+01     0.483333333333333E+00    -0.265865011311027E+05    -0.160973002061727E+06     0.727000367724019E+04     0.149993331165653E+06     0.000000000000000E+00    -0.261943547894029E+05    -0.161365148403427E+06
     0.100050000000000E+02     0.483333333333333E+00    -0.257395176522625E+05    -0.155260430059279E+06     0.716148684646800E+04     0.144657720196715E+06     0.000000000000000E+00    -0.253447470390476E+05    -0.155655200672494E+06
     0.110055000000000E+02     0.483333333333333E+00    -0.248462400115993E+05    -0.149207164564642E+06     0.683571332728384E+04     0.138971426948094E+06     0.000000000000000E+00    -0.244716316254262E+05    -0.149581772950815E+06
     0.120060000000000E+02     0.483333333333333E+00    -0.239195268072664E+05    -0.142891394540765E+06     0.630700726724033E+04     0.133009529268581E+06     0.000000000000000E+00    -0.235861103877722E+05    -0.143224810960259E+06
     0.130065000000000E+02     0.483333333333333E+00    -0.229734612658126E+05    -0.136398755518493E+06     0.559999276143120E+04     0.126857907359773E+06     0.000000000000000E+00    -0.226976511134647E+05    -0.136674565670841E+06
     0.140070000000000E+02     0.483333333333333E+00    -0.220233512421825E+05    -0.129822329596575E+06     0.475053021135866E+04     0.120612789993026E+06     0.000000000000000E+00    -0.218144078893957E+05    -0.130031272949362E+06
     0.150075000000000E+02     0.483333333333333E+00    -0.210857292197160E+05    -0.123262645441656E+06     0.380665268380075E+04     0.114379529581474E+06     0.000000000000000E+00    -0.209441067450435E+05    -0.123404267916329E+06
     0.160080000000000E+02     0.483333333333333E+00    -0.201783523101487E+05    -0.116827678288283E+06     0.282950226967873E+04     0.108270496966569E+06     0.000000000000000E+00    -0.200955867773347E+05    -0.116910443821097E+06
     0.170085000000000E+02     0.483333333333333E+00    -0.193202022536118E+05    -0.110632849938902E+06     0.189426644292442E+04     0.102402213843653E+06     0.000000000000000E+00    -0.192809228922147E+05    -0.110672129300299E+06
     0.180090000000000E+02     0.483333333333333E+00    -0.185314854186319E+05    -0.104801028763857E+06     0.109111441934764E+04     0.968923342551779E+05     0.000000000000000E+00    -0.185176874982147E+05    -0.104814826684275E+06
     0.190095000000000E+02     0.483333333333333E+00    -0.178336328021312E+05    -0.994625297013960E+05     0.526133515503495E+03     0.918579636759109E+05     0.000000000000000E+00    -0.178302417851304E+05    -0.994659207183967E+05
     0.200100000000000E+02     0.483333333333333E+00    -0.172493000294276E+05    -0.947551142576624E+05     0.322265507559820E+03     0.874180885143735E+05     0.000000000000000E+00    -0.172479600878638E+05    -0.947564541992262E+05
     0.000000000000000E+00     0.446153846153845E+00    -0.308180668736563E+05    -0.188667319038110E+06    -0.127033927564367E-09     0.175301878095665E+06     0.000000000000000E+00    -0.308180668736563E+05    -0.188667319038110E+06
     0.101200000000000E+01     0.446153846153845E+00    -0.307616274053317E+05    -0.188303282762074E+06     0.127376084045151E+04     0.174976444117790E+06     0.000000000000000E+00    -0.307513294265106E+05    -0.188313580740895E+06
     0.202400000000000E+01     0.446153846153845E+00    -0.305929886110337E+05    -0.187215053165761E+06     0.250900646801060E+04     0.174002369050163E+06     0.000000000000000E+00    -0.305528059022670E+05    -0.187255235874528E+06
     0.303600000000000E+01     0.446153846153845E+00    -0.303141893227915E+05    -0.185414267944566E+06     0.366821309377861E+04     0.172386440800903E+06     0.000000000000000E+00    -0.302274822797676E+05    -0.185500974987590E+06
     0.404800000000000E+01     0.446153846153845E+00    -0.299286275939867E+05    -0.182920323257475E+06     0.471583977684499E+04     0.170140326232604E+06     0.000000000000000E+00    -0.297834036671872E+05    -0.183065547184275E+06
     0.506000000000000E+01     0.446153846153845E+00    -0.294410606993537E+05    -0.179760373727072E+06     0.561931984828114E+04     0.167281087424832E+06     0.000000000000000E+00    -0.292312889094332E+05    -0.179970145516993E+06
     0.607200000000000E+01     0.446153846153845E+00    -0.288576051349798E+05    -0.175969332439535E+06     0.635005233513450E+04     0.163831875152281E+06     0.000000000000000E+00    -0.285840150286700E+05    -0.176242922545845E+06
     0.708400000000000E+01     0.446153846153845E+00    -0.281857366183049E+05    -0.171589870944636E+06     0.688439338442244E+04     0.159822768301370E+06     0.000000000000000E+00    -0.278559961702312E+05    -0.171919611392710E+06
     0.809600000000000E+01     0.446153846153845E+00    -0.274342900881214E+05    -0.166672419255744E+06     0.720464768712631E+04     0.155291715679033E+06     0.000000000000000E+00    -0.270624902550639E+05    -0.167044219088802E+06
     0.910800000000000E+01     0.446153846153845E+00    -0.266134597045746E+05    -0.161275165849823E+06     0.730005990218543E+04     0.150285521103560E+06     0.000000000000000E+00    -0.262188770084804E+05    -0.161669748545917E+06
     0.101200000000000E+02     0.446153846153845E+00    -0.257347988491625E+05    -0.155464057667430E+06     0.716780608049110E+04     0.144860792410871E+06     0.000000000000000E+00    -0.253399646350655E+05    -0.155858891881527E+06
     0.111320000000000E+02     0.446153846153845E+00    -0.248112201247359E+05    -0.149312800112720E+06     0.681398508888053E+04     0.139084748800565E+06     0.000000000000000E+00    -0.244394004025273E+05    -0.149684619834929E+06
     0.121440000000000E+02     0.446153846153845E+00    -0.238569953554980E+05    -0.142902857053441E+06     0.625461003413092E+04     0.133035748671003E+06     0.000000000000000E+00    -0.235292834048262E+05    -0.143230569004113E+06
     0.131560000000000E+02     0.446153846153845E+00    -0.228877555870050E+05    -0.136323450820937E+06     0.551659968695340E+04     0.126803365068481E+06     0.000000000000000E+00    -0.226201040800056E+05    -0.136591102327937E+06
     0.141680000000000E+02     0.446153846153845E+00    -0.219204910861658E+05    -0.129671562210148E+06     0.463876990598704E+04     0.120487809386030E+06     0.000000000000000E+00    -0.217211570844487E+05    -0.129870896211865E+06
     0.151800000000000E+02     0.446153846153845E+00    -0.209735513412418E+05    -0.123051930479606E+06     0.367282506179283E+04     0.114198513128990E+06     0.000000000000000E+00    -0.208415721157457E+05    -0.123183909705102E+06
     0.161920000000000E+02     0.446153846153845E+00    -0.200666450618472E+05    -0.116577053351442E+06     0.268434946084775E+04     0.108051776738134E+06     0.000000000000000E+00    -0.199920399882748E+05    -0.116651658425014E+06
     0.172040000000000E+02     0.446153846153845E+00    -0.192208401789490E+05    -0.110367187011379E+06     0.175379876953863E+04     0.102167676071327E+06     0.000000000000000E+00    -0.191871068227415E+05    -0.110400920367587E+06
     0.182160000000000E+02     0.446153846153845E+00    -0.184585638448669E+05    -0.104550346108738E+06     0.977491438156249E+03     0.966670092666355E+05     0.000000000000000E+00    -0.184474667768120E+05    -0.104561443176793E+06
     0.192280000000000E+02     0.446153846153845E+00    -0.178036024332731E+05    -0.992623037564320E+05     0.468600124889330E+03     0.916700898449274E+05     0.000000000000000E+00    -0.178009068487953E+05    -0.992649993409099E+05
     0.202400000000000E+02     0.446153846153845E+00    -0.172811015391929E+05    -0.946465915309718E+05     0.358143119818477E+03     0.873006368804724E+05     0.000000000000000E+00    -0.172794436456582E+05    -0.946482494245065E+05
     0.000000000000000E+00     0.408974358974358E+00    -0.310239850744985E+05    -0.189494670408193E+06    -0.135922983816376E-09     0.176044988388116E+06     0.000000000000000E+00    -0.310239850744985E+05    -0.189494670408193E+06
     0.102350000000000E+01     0.408974358974358E+00    -0.309647889972488E+05    -0.189123048345296E+06     0.129232938032349E+04     0.175713404816521E+06     0.000000000000000E+00    -0.309542299297665E+05    -0.189133607412779E+06
     0.204700000000000E+01     0.408974358974358E+00    -0.307879522403361E+05    -0.188012221691757E+06     0.254476828557993E+04     0.174720948210167E+06     0.000000000000000E+00    -0.307467744371992E+05    -0.188053399494893E+06
     0.307050000000000E+01     0.408974358974358E+00    -0.304957292282705E+05    -0.186174309053027E+06     0.371847529048378E+04     0.173074616018214E+06     0.000000000000000E+00    -0.304069618534995E+05    -0.186263076427798E+06
     0.409400000000000E+01     0.408974358974358E+00    -0.300918773352354E+05    -0.183629508104862E+06     0.477670706931323E+04     0.170786449950368E+06     0.000000000000000E+00    -0.299434128278581E+05    -0.183777972612240E+06
     0.511750000000000E+01     0.408974358974358E+00    -0.295816568850877E+05    -0.180406095593321E+06     0.568586744569182E+04     0.167874089118314E+06     0.000000000000000E+00    -0.293676115124351E+05    -0.180620140965974E+06
     0.614100000000000E+01     0.408974358974358E+00    -0.289718311513578E+05    -0.176540427334763E+06     0.641655644237030E+04     0.164361511983209E+06     0.000000000000000E+00    -0.286933528877053E+05    -0.176818905598415E+06
     0.716450000000000E+01     0.408974358974358E+00    -0.282706663572494E+05    -0.172076938215849E+06     0.694461933100832E+04     0.160279932452271E+06     0.000000000000000E+00    -0.279360788027628E+05    -0.172411525770335E+06
     0.818800000000000E+01     0.408974358974358E+00    -0.274879316756397E+05    -0.167068142193544E+06     0.725219568195632E+04     0.155668801860369E+06     0.000000000000000E+00    -0.271121397033513E+05    -0.167443934165832E+06
     0.921150000000000E+01     0.408974358974358E+00    -0.266348992290791E+05    -0.161574632295113E+06     0.732876841403726E+04     0.150576851303540E+06     0.000000000000000E+00    -0.262380306376648E+05    -0.161971500886528E+06
     0.102350000000000E+02     0.408974358974358E+00    -0.257243440897917E+05    -0.155665080618126E+06     0.717221284432844E+04     0.145063086336135E+06     0.000000000000000E+00    -0.253296651997966E+05    -0.156059759508121E+06
     0.112585000000000E+02     0.408974358974358E+00    -0.247705442796748E+05    -0.149416238330453E+06     0.678984573794327E+04     0.139197617107845E+06     0.000000000000000E+00    -0.244017709200785E+05    -0.149785011690049E+06
     0.122820000000000E+02     0.408974358974358E+00    -0.237892807702992E+05    -0.142912935670266E+06     0.619947435781307E+04     0.133062171769566E+06     0.000000000000000E+00    -0.234675147117532E+05    -0.143234701728812E+06
     0.133055000000000E+02     0.408974358974358E+00    -0.227978374829090E+05    -0.136248081946040E+06     0.543044551446890E+04     0.126750103801791E+06     0.000000000000000E+00    -0.225384948957921E+05    -0.136507424533157E+06
     0.143290000000000E+02     0.408974358974358E+00    -0.218150012884220E+05    -0.129522665536552E+06     0.452469461582326E+04     0.120365678818536E+06     0.000000000000000E+00    -0.216252575147595E+05    -0.129712409310215E+06
     0.153525000000000E+02     0.408974358974358E+00    -0.208610620074291E+05    -0.122845753890882E+06     0.353779471695198E+04     0.114022446220942E+06     0.000000000000000E+00    -0.207384851173641E+05    -0.122968330780947E+06
     0.163760000000000E+02     0.408974358974358E+00    -0.199578124101948E+05    -0.116334493528410E+06     0.254000556987595E+04     0.107840630315861E+06     0.000000000000000E+00    -0.198909170447363E+05    -0.116401388893868E+06
     0.173995000000000E+02     0.408974358974358E+00    -0.191285482166569E+05    -0.110114110038820E+06     0.161732267334294E+04     0.101943821397845E+06     0.000000000000000E+00    -0.190998084188103E+05    -0.110142849836667E+06
     0.184230000000000E+02     0.408974358974358E+00    -0.183980680964266E+05    -0.104317908082098E+06     0.872526322609346E+03     0.964559525705158E+05     0.000000000000000E+00    -0.183892084001149E+05    -0.104326767778410E+06
     0.194465000000000E+02     0.408974358974358E+00    -0.177926736687887E+05    -0.990872713885322E+05     0.426230659222082E+03     0.915007328969903E+05     0.000000000000000E+00    -0.177904389867046E+05    -0.990895060706162E+05
     0.204700000000000E+02     0.408974358974358E+00    -0.173401695027012E+05    -0.945716627587113E+05     0.417932720800229E+03     0.872073174465241E+05     0.000000000000000E+00    -0.173379079557965E+05    -0.945739243056161E+05
     0.000000000000000E+00     0.371794871794871E+00    -0.312282889664925E+05    -0.190321865386707E+06    -0.144844520632222E-09     0.176788552420999E+06     0.000000000000000E+00    -0.312282889664925E+05    -0.190321865386707E+06
     0.103500000000000E+01     0.371794871794871E+00    -0.311662553781879E+05    -0.189942597756349E+06     0.131109541764613E+04     0.176450795751791E+06     0.000000000000000E+00    -0.311554297477813E+05    -0.189953423386756E+06
     0.207000000000000E+01     0.371794871794871E+00    -0.309809827264625E+05    -0.188808999110727E+06     0.258088872530405E+04     0.175439887299551E+06     0.000000000000000E+00    -0.309387899236107E+05    -0.188851191913579E+06
     0.310500000000000E+01     0.371794871794871E+00    -0.306749553508837E+05    -0.186933682186194E+06     0.376918713750318E+04     0.173763035142295E+06     0.000000000000000E+00    -0.305840899288995E+05    -0.187024547608178E+06
     0.414000000000000E+01     0.371794871794871E+00    -0.302523138173967E+05    -0.184337668210004E+06     0.483801651780904E+04     0.171432659189640E+06     0.000000000000000E+00    -0.301005578374639E+05    -0.184489424189937E+06
     0.517500000000000E+01     0.371794871794871E+00    -0.297188549183250E+05    -0.181050386900313E+06     0.575273070334099E+04     0.168466983367211E+06     0.000000000000000E+00    -0.295004851921018E+05    -0.181268756626536E+06
     0.621000000000000E+01     0.371794871794871E+00    -0.290820316723701E+05    -0.177109676466181E+06     0.648312082929021E+04     0.164890828764783E+06     0.000000000000000E+00    -0.287986349995967E+05    -0.177393073138954E+06
     0.724500000000000E+01     0.371794871794871E+00    -0.283509533246118E+05    -0.172561783607567E+06     0.700452465343769E+04     0.160736569393623E+06     0.000000000000000E+00    -0.280115324986759E+05    -0.172901204433503E+06
     0.828000000000000E+01     0.371794871794871E+00    -0.275363853465079E+05    -0.167461363515334E+06     0.729893588067212E+04     0.156045197128674E+06     0.000000000000000E+00    -0.271566798114980E+05    -0.167841069050344E+06
     0.931500000000000E+01     0.371794871794871E+00    -0.266507494358945E+05    -0.161871479871246E+06     0.735611348750790E+04     0.150867423280373E+06     0.000000000000000E+00    -0.262517484566368E+05    -0.162270480850503E+06
     0.103500000000000E+02     0.371794871794871E+00    -0.257081235169857E+05    -0.155863604847968E+06     0.717469104660308E+04     0.145264719393859E+06     0.000000000000000E+00    -0.253138203642247E+05    -0.156257908000729E+06
     0.113850000000000E+02     0.371794871794871E+00    -0.247242417403738E+05    -0.149517619109070E+06     0.676328605127731E+04     0.139310168002977E+06     0.000000000000000E+00    -0.243587698740935E+05    -0.149883090975350E+06
     0.124200000000000E+02     0.371794871794871E+00    -0.237164944830291E+05    -0.142921811809019E+06     0.614160924002979E+04     0.133088955710964E+06     0.000000000000000E+00    -0.234009064781291E+05    -0.143237399813919E+06
     0.134550000000000E+02     0.371794871794871E+00    -0.227039283483003E+05    -0.136172880593189E+06     0.534157392105725E+04     0.126698301817288E+06     0.000000000000000E+00    -0.224530274618810E+05    -0.136423781479609E+06
     0.144900000000000E+02     0.371794871794871E+00    -0.217072461659140E+05    -0.129375931597853E+06     0.440840529677189E+04     0.120246593006050E+06     0.000000000000000E+00    -0.215270492381814E+05    -0.129556128525585E+06
     0.155250000000000E+02     0.371794871794871E+00    -0.207488069919751E+05    -0.122644479450185E+06     0.340174978831932E+04     0.113851527891904E+06     0.000000000000000E+00    -0.206353671104105E+05    -0.122757919331750E+06
     0.165600000000000E+02     0.371794871794871E+00    -0.198526261089665E+05    -0.116100447268264E+06     0.239678436009654E+04     0.107637240648482E+06     0.000000000000000E+00    -0.197929778251727E+05    -0.116160095552058E+06
     0.175950000000000E+02     0.371794871794871E+00    -0.190443750257494E+05    -0.109874166661068E+06     0.148532584426991E+04     0.101730794072599E+06     0.000000000000000E+00    -0.190200922087491E+05    -0.109898449478069E+06
     0.186300000000000E+02     0.371794871794871E+00    -0.183513814775630E+05    -0.104104377728479E+06     0.776940265293081E+03     0.962592666901052E+05     0.000000000000000E+00    -0.183443428123336E+05    -0.104111416393709E+06
     0.196650000000000E+02     0.371794871794871E+00    -0.178026294260248E+05    -0.989382290612798E+05     0.400052164424926E+03     0.913500206974268E+05     0.000000000000000E+00    -0.178006569522361E+05    -0.989402015350685E+05
     0.207000000000000E+02     0.371794871794871E+00    -0.174287590591302E+05    -0.945312777411548E+05     0.503053924247546E+03     0.871385129559046E+05     0.000000000000000E+00    -0.174254770330261E+05    -0.945345597672589E+05
     0.000000000000000E+00     0.334615384615384E+00    -0.314308733879350E+05    -0.191148900090182E+06    -0.153796311928964E-09     0.177532602444275E+06     0.000000000000000E+00    -0.314308733879350E+05    -0.191148900090182E+06
     0.104650000000000E+01     0.334615384615384E+00    -0.313659204290943E+05    -0.190761927791786E+06     0.133006243805804E+04     0.177188650340400E+06     0.000000000000000E+00    -0.313548226421577E+05    -0.190773025578723E+06
     0.209300000000000E+01     0.334615384615384E+00    -0.311719712906102E+05    -0.189605384309688E+06     0.261737401043777E+04     0.176159223139897E+06     0.000000000000000E+00    -0.311287431740787E+05    -0.189648612426219E+06
     0.313950000000000E+01     0.334615384615384E+00    -0.308517551865977E+05    -0.187692389883151E+06     0.382035618995668E+04     0.174451740373475E+06     0.000000000000000E+00    -0.307587533181799E+05    -0.187785391751569E+06
     0.418600000000000E+01     0.334615384615384E+00    -0.304098208072488E+05    -0.185044811577616E+06     0.489977512642456E+04     0.172079003137532E+06     0.000000000000000E+00    -0.302547217546093E+05    -0.185199910630256E+06
     0.523250000000000E+01     0.334615384615384E+00    -0.298525363188324E+05    -0.181693263284701E+06     0.581991398513945E+04     0.169059827584795E+06     0.000000000000000E+00    -0.296297911826980E+05    -0.181916008420836E+06
     0.627900000000000E+01     0.334615384615384E+00    -0.291880893636938E+05    -0.177677105722199E+06     0.654974528538372E+04     0.165419892119203E+06     0.000000000000000E+00    -0.288997446652891E+05    -0.177965450420604E+06
     0.732550000000000E+01     0.334615384615384E+00    -0.284264870602556E+05    -0.173044446434080E+06     0.706410323892016E+04     0.161192755899783E+06     0.000000000000000E+00    -0.280822486633664E+05    -0.173388684830970E+06
     0.837200000000000E+01     0.334615384615384E+00    -0.275795560030167E+05    -0.167852139790491E+06     0.734485608848805E+04     0.156420989591786E+06     0.000000000000000E+00    -0.271960184048719E+05    -0.168235677388635E+06
     0.941850000000000E+01     0.334615384615384E+00    -0.266609422625532E+05    -0.162165786987753E+06     0.738207844629928E+04     0.151157338142759E+06     0.000000000000000E+00    -0.262599654568985E+05    -0.162566763793407E+06
     0.104650000000000E+02     0.334615384615384E+00    -0.256861113855176E+05    -0.156059736048365E+06     0.717522363253435E+04     0.145465807917849E+06     0.000000000000000E+00    -0.252924057553612E+05    -0.156453441678522E+06
     0.115115000000000E+02     0.334615384615384E+00    -0.246723483946396E+05    -0.149617081821004E+06     0.673429601383857E+04     0.139422535509394E+06     0.000000000000000E+00    -0.243104303140222E+05    -0.149978999901621E+06
     0.125580000000000E+02     0.334615384615384E+00    -0.236387577887254E+05    -0.142929665980520E+06     0.608102334181803E+04     0.133116253954246E+06     0.000000000000000E+00    -0.233295703696447E+05    -0.143238853399601E+06
     0.136045000000000E+02     0.334615384615384E+00    -0.226062635426582E+05    -0.136098077027942E+06     0.525002909153576E+04     0.126648131219955E+06     0.000000000000000E+00    -0.223639194128037E+05    -0.136340421157796E+06
     0.146510000000000E+02     0.334615384615384E+00    -0.215976091073977E+05    -0.129231650290473E+06     0.429000480000778E+04     0.120130736750549E+06     0.000000000000000E+00    -0.214268917713830E+05    -0.129402367626488E+06
     0.156975000000000E+02     0.334615384615384E+00    -0.206373574099808E+05    -0.122448467921495E+06     0.326488240469919E+04     0.113685941926598E+06     0.000000000000000E+00    -0.205327664885953E+05    -0.122553058842880E+06
     0.167440000000000E+02     0.334615384615384E+00    -0.197518908535208E+05    -0.115875358900564E+06     0.225500658202026E+04     0.107441768949801E+06     0.000000000000000E+00    -0.196990186536440E+05    -0.115928231100441E+06
     0.177905000000000E+02     0.334615384615384E+00    -0.189694113172082E+05    -0.109647899033414E+06     0.135830708582248E+04     0.101528711336985E+06     0.000000000000000E+00    -0.189490692891511E+05    -0.109668241061471E+06
     0.188370000000000E+02     0.334615384615384E+00    -0.183199401563098E+05    -0.103910410951955E+06     0.691471085894708E+03     0.960770295027143E+05     0.000000000000000E+00    -0.183143542417128E+05    -0.103915996866552E+06
     0.198835000000000E+02     0.334615384615384E+00    -0.178353182021698E+05    -0.988159641142721E+05     0.391115506459175E+03     0.912180798405212E+05     0.000000000000000E+00    -0.178334292598235E+05    -0.988178530566183E+05
     0.209300000000000E+02     0.334615384615384E+00    -0.175492057622086E+05    -0.945263748046283E+05     0.614959364667623E+03     0.870946719394930E+05     0.000000000000000E+00    -0.175442932551345E+05    -0.945312873117024E+05
     0.000000000000000E+00     0.297435897435897E+00    -0.316316311537146E+05    -0.191975770634991E+06    -0.162776095484753E-09     0.178277171374148E+06     0.000000000000000E+00    -0.316316311537146E+05    -0.191975770634991E+06
     0.105800000000000E+01     0.297435897435897E+00    -0.315636760212615E+05    -0.191581035254347E+06     0.134923391403761E+04     0.177927002675200E+06     0.000000000000000E+00    -0.315523003632834E+05    -0.191592410912325E+06
     0.211600000000000E+01     0.297435897435897E+00    -0.313608071914635E+05    -0.190401376199781E+06     0.265423032296030E+04     0.176878993253303E+06     0.000000000000000E+00    -0.313165230345048E+05    -0.190445660356740E+06
     0.317400000000000E+01     0.297435897435897E+00    -0.310260143670056E+05    -0.188450434733398E+06     0.387198990569156E+04     0.175140774637692E+06     0.000000000000000E+00    -0.309308369665911E+05    -0.188545612133812E+06
     0.423200000000000E+01     0.297435897435897E+00    -0.305642803856964E+05    -0.185750946292036E+06     0.496198970923244E+04     0.172725531711810E+06     0.000000000000000E+00    -0.304057859606238E+05    -0.185909440717108E+06
     0.529000000000000E+01     0.297435897435897E+00    -0.299825812204678E+05    -0.182334740487270E+06     0.588742133270011E+04     0.169652679875904E+06     0.000000000000000E+00    -0.297554093637458E+05    -0.182561912343992E+06
     0.634800000000000E+01     0.297435897435897E+00    -0.292898859793751E+05    -0.178242741105413E+06     0.661642911136660E+04     0.165948769252394E+06     0.000000000000000E+00    -0.289965643336710E+05    -0.178536062751117E+06
     0.740600000000000E+01     0.297435897435897E+00    -0.284971569055972E+05    -0.173524966107510E+06     0.712334830069746E+04     0.161648569128061E+06     0.000000000000000E+00    -0.281481185829409E+05    -0.173874004430166E+06
     0.846400000000000E+01     0.297435897435897E+00    -0.276173493774362E+05    -0.168240527629343E+06     0.738994326039052E+04     0.156796267419944E+06     0.000000000000000E+00    -0.272300642067739E+05    -0.168627812800005E+06
     0.952200000000000E+01     0.297435897435897E+00    -0.266654119083178E+05    -0.162457631981431E+06     0.740664563841457E+04     0.151446696582193E+06     0.000000000000000E+00    -0.262626188957825E+05    -0.162860424993966E+06
     0.105800000000000E+02     0.297435897435897E+00    -0.256582861467909E+05    -0.156253579649028E+06     0.717379255504806E+04     0.145666467115459E+06     0.000000000000000E+00    -0.252654010774353E+05    -0.156646464718384E+06
     0.116380000000000E+02     0.297435897435897E+00    -0.246149068765280E+05    -0.149714765292123E+06     0.670286478691784E+04     0.139534851454266E+06     0.000000000000000E+00    -0.242567917636491E+05    -0.150072880405002E+06
     0.126960000000000E+02     0.297435897435897E+00    -0.235562020163249E+05    -0.142936677745442E+06     0.601772495103786E+04     0.133144216106384E+06     0.000000000000000E+00    -0.232536277288104E+05    -0.143239252032957E+06
     0.137540000000000E+02     0.297435897435897E+00    -0.225050926201010E+05    -0.136023900018447E+06     0.515585568884786E+04     0.126599757682461E+06     0.000000000000000E+00    -0.222714023852725E+05    -0.136257590253275E+06
     0.148120000000000E+02     0.297435897435897E+00    -0.214864928768989E+05    -0.129090109295332E+06     0.416959785025209E+04     0.120018284518969E+06     0.000000000000000E+00    -0.213251644758873E+05    -0.129251437696344E+06
     0.158700000000000E+02     0.297435897435897E+00    -0.205273101108848E+05    -0.122258076935033E+06     0.312738867765803E+04     0.113525856337922E+06     0.000000000000000E+00    -0.204312591868019E+05    -0.122354127859116E+06
     0.169280000000000E+02     0.297435897435897E+00    -0.196564447813483E+05    -0.115659668471217E+06     0.211499999001510E+04     0.107254354319317E+06     0.000000000000000E+00    -0.196098728451083E+05    -0.115706240407457E+06
     0.179860000000000E+02     0.297435897435897E+00    -0.189047904827022E+05    -0.109435843612287E+06     0.123677636685333E+04     0.101337663890997E+06     0.000000000000000E+00    -0.188878976005444E+05    -0.109452736494445E+06
     0.190440000000000E+02     0.297435897435897E+00    -0.183052339444831E+05    -0.103736656241385E+06     0.616873332322142E+03     0.959092971244866E+05     0.000000000000000E+00    -0.183007799290910E+05    -0.103741110256778E+06
     0.201020000000000E+02     0.297435897435897E+00    -0.178926550313506E+05    -0.987212544163866E+05     0.400495539229002E+03     0.911050438675712E+05     0.000000000000000E+00    -0.178906706750647E+05    -0.987232387726725E+05
     0.211600000000000E+02     0.297435897435897E+00    -0.177039267430882E+05    -0.945578803699022E+05     0.755134953078115E+03     0.870763266422913E+05     0.000000000000000E+00    -0.176965078175808E+05    -0.945652992954096E+05
     0.000000000000000E+00     0.260256410256410E+00    -0.318304530384431E+05    -0.192802473137738E+06    -0.171781572790515E-09     0.179022292806662E+06     0.000000000000000E+00    -0.318304530384431E+05    -0.192802473137738E+06
     0.106950000000000E+01     0.260256410256410E+00    -0.317594119998394E+05    -0.192399916953475E+06     0.136861330426179E+04     0.178665887539142E+06     0.000000000000000E+00    -0.317477526338760E+05    -0.192411576319438E+06
     0.213900000000000E+01     0.260256410256410E+00    -0.315473777099131E+05    -0.191196973717158E+06     0.269146380204824E+04     0.177599235877628E+06     0.000000000000000E+00    -0.315020163690290E+05    -0.191242335058042E+06
     0.320850000000000E+01     0.260256410256410E+00    -0.311976166463205E+05    -0.189207819378206E+06     0.392409564240352E+04     0.175830181603305E+06     0.000000000000000E+00    -0.311002239399925E+05    -0.189305212084534E+06
     0.427800000000000E+01     0.260256410256410E+00    -0.307155729384888E+05    -0.186456080518982E+06     0.502466688541167E+04     0.173372295579090E+06     0.000000000000000E+00    -0.305536301515099E+05    -0.186618023305961E+06
     0.534750000000000E+01     0.260256410256410E+00    -0.301088683676162E+05    -0.182974834354796E+06     0.595525645771633E+04     0.170245599055600E+06     0.000000000000000E+00    -0.298772182584802E+05    -0.183206484463932E+06
     0.641700000000000E+01     0.260256410256410E+00    -0.293873023666715E+05    -0.178806608733904E+06     0.668317110804057E+04     0.166477527971391E+06     0.000000000000000E+00    -0.290889756089804E+05    -0.179104935491595E+06
     0.748650000000000E+01     0.260256410256410E+00    -0.285628520203947E+05    -0.174003382137505E+06     0.718225236270674E+04     0.162104086631993E+06     0.000000000000000E+00    -0.282090334433125E+05    -0.174357200714587E+06
     0.855600000000000E+01     0.260256410256410E+00    -0.276496720652964E+05    -0.168626583679746E+06     0.743418348115634E+04     0.157171118850377E+06     0.000000000000000E+00    -0.272587268725228E+05    -0.169017528872520E+06
     0.962550000000000E+01     0.260256410256410E+00    -0.266640948896583E+05    -0.162747093107720E+06     0.742979641146991E+04     0.151735598861325E+06     0.000000000000000E+00    -0.262596483501692E+05    -0.163151539647209E+06
     0.106950000000000E+02     0.260256410256410E+00    -0.256246305335329E+05    -0.156445240801464E+06     0.717037874588682E+04     0.145866811027112E+06     0.000000000000000E+00    -0.252327901927652E+05    -0.156837081142231E+06
     0.117645000000000E+02     0.260256410256410E+00    -0.245519666887435E+05    -0.149810807773960E+06     0.666898067632520E+04     0.139647245378758E+06     0.000000000000000E+00    -0.241979003418179E+05    -0.150164874120885E+06
     0.128340000000000E+02     0.260256410256410E+00    -0.234689686988846E+05    -0.142943025671137E+06     0.595172194990173E+04     0.133172987753207E+06     0.000000000000000E+00    -0.231732097557967E+05    -0.143238784614225E+06
     0.139035000000000E+02     0.260256410256410E+00    -0.224006795593212E+05    -0.135950576771871E+06     0.505909882445156E+04     0.126553340160973E+06     0.000000000000000E+00    -0.221757222870709E+05    -0.136175534044121E+06
     0.149730000000000E+02     0.260256410256410E+00    -0.213743199171894E+05    -0.128951593987980E+06     0.404729102404814E+04     0.119909400024071E+06     0.000000000000000E+00    -0.212222669425483E+05    -0.129103646962621E+06
     0.160425000000000E+02     0.260256410256410E+00    -0.204192880713962E+05    -0.122073660864231E+06     0.298946869452309E+04     0.113371422872997E+06     0.000000000000000E+00    -0.203314491800688E+05    -0.122161499755558E+06
     0.171120000000000E+02     0.260256410256410E+00    -0.195671599726194E+05    -0.115453811578333E+06     0.197709935898601E+04     0.107075113459587E+06     0.000000000000000E+00    -0.195264112203264E+05    -0.115494560330626E+06
     0.181815000000000E+02     0.260256410256410E+00    -0.188516892233078E+05    -0.109238530940945E+06     0.112125487334443E+04     0.101157716609617E+06     0.000000000000000E+00    -0.188377821206853E+05    -0.109252438043567E+06
     0.192510000000000E+02     0.260256410256410E+00    -0.183088070776811E+05    -0.103583754395667E+06     0.553918381823586E+03     0.957561073374366E+05     0.000000000000000E+00    -0.183052091554504E+05    -0.103587352317898E+06
     0.203205000000000E+02     0.260256410256410E+00    -0.179766224417297E+05    -0.986548680190492E+05     0.429291272486306E+03     0.910110624970464E+05     0.000000000000000E+00    -0.179743382351544E+05    -0.986571522256245E+05
     0.213900000000000E+02     0.260256410256410E+00    -0.178954218732151E+05    -0.946267085205835E+05     0.925100132752888E+03     0.870841125049631E+05     0.000000000000000E+00    -0.178842701522923E+05    -0.946378602415063E+05
     0.000000000000000E+00     0.223076923076923E+00    -0.320272277595875E+05    -0.193629003715642E+06    -0.180810408901615E-09     0.179768001031924E+06     0.000000000000000E+00    -0.320272277595875E+05    -0.193629003715642E+06
     0.108100000000000E+01     0.223076923076923E+00    -0.319530161673436E+05    -0.193218569705839E+06     0.138820405296480E+04     0.179405340419947E+06     0.000000000000000E+00    -0.319410671325314E+05    -0.193230518740651E+06
     0.216200000000000E+01     0.223076923076923E+00    -0.317315681337744E+05    -0.191992175823856E+06     0.272908054254859E+04     0.178319989982401E+06     0.000000000000000E+00    -0.316851080449529E+05    -0.192038635912677E+06
     0.324300000000000E+01     0.223076923076923E+00    -0.313664438883681E+05    -0.189964546511974E+06     0.397668065475760E+04     0.176520005698631E+06     0.000000000000000E+00    -0.312667954124422E+05    -0.190064194987900E+06
     0.432400000000000E+01     0.223076923076923E+00    -0.308635771469387E+05    -0.187160222507327E+06     0.508781307437337E+04     0.174019346173761E+06     0.000000000000000E+00    -0.306981323299200E+05    -0.187325667324346E+06
     0.540500000000000E+01     0.223076923076923E+00    -0.302312751116259E+05    -0.183613560841903E+06     0.602342273434024E+04     0.170838644668561E+06     0.000000000000000E+00    -0.299950950323278E+05    -0.183849740921201E+06
     0.648600000000000E+01     0.223076923076923E+00    -0.294802184708948E+05    -0.179368734842544E+06     0.674996956515284E+04     0.167006236702381E+06     0.000000000000000E+00    -0.291768592581996E+05    -0.179672094055239E+06
     0.756700000000000E+01     0.223076923076923E+00    -0.286234613995364E+05    -0.174479734130945E+06     0.724080724424377E+04     0.162559386375079E+06     0.000000000000000E+00    -0.282648843492124E+05    -0.174838311181269E+06
     0.864800000000000E+01     0.223076923076923E+00    -0.276764315586668E+05    -0.169010364623655E+06     0.747756194537110E+04     0.157545632191981E+06     0.000000000000000E+00    -0.272819170233454E+05    -0.169404879158976E+06
     0.972900000000000E+01     0.223076923076923E+00    -0.266569300957283E+05    -0.163034248532077E+06     0.745151108800600E+04     0.152024144801747E+06     0.000000000000000E+00    -0.262509957698995E+05    -0.163440182857906E+06
     0.108100000000000E+02     0.223076923076923E+00    -0.255851316444883E+05    -0.156634824362468E+06     0.716496208672033E+04     0.146066952484176E+06     0.000000000000000E+00    -0.251945612022976E+05    -0.157025394804659E+06
     0.118910000000000E+02     0.223076923076923E+00    -0.244835843250403E+05    -0.149905346915938E+06     0.663263110057421E+04     0.139759844445203E+06     0.000000000000000E+00    -0.241338088829624E+05    -0.150255122358016E+06
     0.129720000000000E+02     0.223076923076923E+00    -0.233772097438029E+05    -0.142948887288451E+06     0.588302178250359E+04     0.133202710285891E+06     0.000000000000000E+00    -0.230884576893578E+05    -0.143237639342896E+06
     0.140530000000000E+02     0.223076923076923E+00    -0.222933029935206E+05    -0.135878332870825E+06     0.495980402870787E+04     0.126509030607232E+06     0.000000000000000E+00    -0.220771395659783E+05    -0.136094496298367E+06
     0.151340000000000E+02     0.223076923076923E+00    -0.212615326532636E+05    -0.128816387348731E+06     0.392319272803745E+04     0.119804235809914E+06     0.000000000000000E+00    -0.211186193740864E+05    -0.128959300627908E+06
     0.162150000000000E+02     0.223076923076923E+00    -0.203139407884275E+05    -0.121895570702694E+06     0.285132651138131E+04     0.113222776552638E+06     0.000000000000000E+00    -0.202339689727551E+05    -0.121975542518366E+06
     0.172960000000000E+02     0.223076923076923E+00    -0.194849429507335E+05    -0.115258219208093E+06     0.184164650105468E+04     0.106904140501881E+06     0.000000000000000E+00    -0.194495425887358E+05    -0.115293619570090E+06
     0.183770000000000E+02     0.223076923076923E+00    -0.188113281782286E+05    -0.109056485435160E+06     0.101227506018648E+04     0.100988909530729E+06     0.000000000000000E+00    -0.187999749717705E+05    -0.109067838641619E+06
     0.194580000000000E+02     0.223076923076923E+00    -0.183322589952853E+05    -0.103452338248983E+06     0.503394542107030E+03     0.956174835937399E+05     0.000000000000000E+00    -0.183292820572340E+05    -0.103455315187035E+06
     0.205390000000000E+02     0.223076923076923E+00    -0.180892714126017E+05    -0.986175628095011E+05     0.478626039735576E+03     0.909363119093360E+05     0.000000000000000E+00    -0.180864267627289E+05    -0.986204074593739E+05
     0.216200000000000E+02     0.223076923076923E+00    -0.181262749272016E+05    -0.947337605715076E+05     0.112640813496791E+04     0.871187891996265E+05     0.000000000000000E+00    -0.181097162177622E+05    -0.947503192809470E+05
     0.000000000000000E+00     0.185897435897436E+00    -0.322218419606008E+05    -0.194455358486927E+06    -0.189860232289543E-09     0.180514331048965E+06     0.000000000000000E+00    -0.322218419606008E+05    -0.194455358486927E+06
     0.109250000000000E+01     0.185897435897436E+00    -0.321443742671646E+05    -0.194036990335849E+06     0.140800958929680E+04     0.180145397525451E+06     0.000000000000000E+00    -0.321321294772736E+05    -0.194049235125740E+06
     0.218500000000000E+01     0.185897435897436E+00    -0.319132617425065E+05    -0.192786981508675E+06     0.276708659345177E+04     0.179041295285431E+06     0.000000000000000E+00    -0.318656809176713E+05    -0.192834562333510E+06
     0.327750000000000E+01     0.185897435897436E+00    -0.315323760535797E+05    -0.190720618883581E+06     0.402975209150921E+04     0.177210292130195E+06     0.000000000000000E+00    -0.314304306538066E+05    -0.190822564283354E+06
     0.437000000000000E+01     0.185897435897436E+00    -0.310081699786398E+05    -0.187863380590860E+06     0.515143449088662E+04     0.174666735717677E+06     0.000000000000000E+00    -0.308391687971611E+05    -0.188032381772338E+06
     0.546250000000000E+01     0.185897435897436E+00    -0.303496774072446E+05    -0.184250936012923E+06     0.609192319156108E+04     0.171431877009215E+06     0.000000000000000E+00    -0.301089154914067E+05    -0.184491697928761E+06
     0.655500000000000E+01     0.185897435897436E+00    -0.295685133402539E+05    -0.179929145784300E+06     0.681682225025572E+04     0.167534964509417E+06     0.000000000000000E+00    -0.292600952184362E+05    -0.180237563906117E+06
     0.764750000000000E+01     0.185897435897436E+00    -0.286788738898299E+05    -0.174954061791636E+06     0.729900404462623E+04     0.163014546744991E+06     0.000000000000000E+00    -0.283155623431090E+05    -0.175317373338356E+06
     0.874000000000000E+01     0.185897435897436E+00    -0.276975362794370E+05    -0.169391927173694E+06     0.752006293744743E+04     0.157919895830074E+06     0.000000000000000E+00    -0.272995462800611E+05    -0.169789917173070E+06
     0.983250000000000E+01     0.185897435897436E+00    -0.266438588438417E+05    -0.163319176321358E+06     0.747176894079971E+04     0.152312433771155E+06     0.000000000000000E+00    -0.262366055308729E+05    -0.163726429634326E+06
     0.109250000000000E+02     0.185897435897436E+00    -0.255397810291128E+05    -0.156822434877623E+06     0.715752138025562E+04     0.146267003065152E+06     0.000000000000000E+00    -0.251507065258001E+05    -0.157211509380936E+06
     0.120175000000000E+02     0.185897435897436E+00    -0.244098233926214E+05    -0.149998519737608E+06     0.659380255906634E+04     0.139872773341157E+06     0.000000000000000E+00    -0.240645770574188E+05    -0.150343766072811E+06
     0.131100000000000E+02     0.185897435897436E+00    -0.232810876030406E+05    -0.142954439048545E+06     0.581163142234820E+04     0.133233520723201E+06     0.000000000000000E+00    -0.229995229877804E+05    -0.143236003663805E+06
     0.142025000000000E+02     0.185897435897436E+00    -0.221832564403460E+05    -0.135807392209785E+06     0.485801722126921E+04     0.126466973677726E+06     0.000000000000000E+00    -0.219759294785738E+05    -0.136014719171558E+06
     0.152950000000000E+02     0.185897435897436E+00    -0.211485937958151E+05    -0.128684769872798E+06     0.379741317723556E+04     0.119702932844286E+06     0.000000000000000E+00    -0.210146629653104E+05    -0.128818700703303E+06
     0.163875000000000E+02     0.185897435897436E+00    -0.202119446720278E+05    -0.121724153941169E+06     0.271317014607817E+04     0.113080035249972E+06     0.000000000000000E+00    -0.201394800771085E+05    -0.121796618536088E+06
     0.174800000000000E+02     0.185897435897436E+00    -0.194107351828663E+05    -0.115073317570601E+06     0.170899028223915E+04     0.106741506952175E+06     0.000000000000000E+00    -0.193802141977395E+05    -0.115103838555728E+06
     0.185725000000000E+02     0.185897435897436E+00    -0.187849725535149E+05    -0.108890225168916E+06     0.910380702958364E+03     0.100831259136750E+06     0.000000000000000E+00    -0.187757754377716E+05    -0.108899422284660E+06
     0.196650000000000E+02     0.185897435897436E+00    -0.183772451204601E+05    -0.103343032396053E+06     0.466107152459920E+03     0.954934396324055E+05     0.000000000000000E+00    -0.183746882167135E+05    -0.103345589299799E+06
     0.207575000000000E+02     0.185897435897436E+00    -0.182327223314907E+05    -0.986100861640664E+05     0.549647666138689E+03     0.908810061259157E+05     0.000000000000000E+00    -0.182289638301396E+05    -0.986138446654175E+05
     0.218500000000000E+02     0.185897435897436E+00    -0.183991547456976E+05    -0.948799246371310E+05     0.136064623474689E+04     0.871812632012950E+05     0.000000000000000E+00    -0.183749555570907E+05    -0.949041238257379E+05
     0.000000000000000E+00     0.148717948717949E+00    -0.324141801940542E+05    -0.195281533571209E+06    -0.198928634693582E-09     0.181261318581289E+06     0.000000000000000E+00    -0.324141801940542E+05    -0.195281533571209E+06
     0.110400000000000E+01     0.148717948717949E+00    -0.323333699670762E+05    -0.194855175676180E+06     0.142803332668268E+04     0.180886095799627E+06     0.000000000000000E+00    -0.323208232091068E+05    -0.194867722434150E+06
     0.220800000000000E+01     0.148717948717949E+00    -0.320923397919308E+05    -0.193581389788059E+06     0.280548795636461E+04     0.179763192270121E+06     0.000000000000000E+00    -0.320436158156140E+05    -0.193630113764375E+06
     0.331200000000000E+01     0.148717948717949E+00    -0.316952911859854E+05    -0.191476039297741E+06     0.408331699262504E+04     0.177901086901739E+06     0.000000000000000E+00    -0.315910070173897E+05    -0.191580323466336E+06
     0.441600000000000E+01     0.148717948717949E+00    -0.311492266781857E+05    -0.188565563190053E+06     0.521553714020422E+04     0.175314517240606E+06     0.000000000000000E+00    -0.309766141452275E+05    -0.188738175723011E+06
     0.552000000000000E+01     0.148717948717949E+00    -0.304639498090555E+05    -0.184886976043754E+06     0.616076050558358E+04     0.172025357142629E+06     0.000000000000000E+00    -0.302185540810490E+05    -0.185132371771761E+06
     0.662400000000000E+01     0.148717948717949E+00    -0.296520651306972E+05    -0.180487868031533E+06     0.688372639756615E+04     0.168063781113782E+06     0.000000000000000E+00    -0.293385626042872E+05    -0.180801370557943E+06
     0.772800000000000E+01     0.148717948717949E+00    -0.287289782067911E+05    -0.175426404920010E+06     0.735683312785697E+04     0.163469646568213E+06     0.000000000000000E+00    -0.283609584240299E+05    -0.175794424702771E+06
     0.883200000000000E+01     0.148717948717949E+00    -0.277128956125961E+05    -0.169771328069735E+06     0.756166981164344E+04     0.158293998231167E+06     0.000000000000000E+00    -0.273115272965520E+05    -0.170172696385779E+06
     0.993600000000000E+01     0.148717948717949E+00    -0.266248249349493E+05    -0.163601954435190E+06     0.749054816817577E+04     0.152600564669851E+06     0.000000000000000E+00    -0.262164244878188E+05    -0.164010354882320E+06
     0.110400000000000E+02     0.148717948717949E+00    -0.254885747722659E+05    -0.157008176564787E+06     0.714803432134736E+04     0.146467073050121E+06     0.000000000000000E+00    -0.251012229816950E+05    -0.157395528355358E+06
     0.121440000000000E+02     0.148717948717949E+00    -0.243307547345395E+05    -0.150090462600870E+06     0.655248060027519E+04     0.139986154180373E+06     0.000000000000000E+00    -0.239902714914987E+05    -0.150430945843911E+06
     0.132480000000000E+02     0.148717948717949E+00    -0.231807754433420E+05    -0.142959856279713E+06     0.573755733988022E+04     0.133265551529732E+06     0.000000000000000E+00    -0.229065675098009E+05    -0.143234064213254E+06
     0.143520000000000E+02     0.148717948717949E+00    -0.220708485318236E+05    -0.135737976931521E+06     0.475378468146782E+04     0.126427306440889E+06     0.000000000000000E+00    -0.218723823587662E+05    -0.135936443104579E+06
     0.154560000000000E+02     0.148717948717949E+00    -0.210359866447128E+05    -0.128557019480431E+06     0.367006437330811E+04     0.119605620120656E+06     0.000000000000000E+00    -0.209108602806664E+05    -0.128682145844477E+06
     0.165600000000000E+02     0.148717948717949E+00    -0.201140034383162E+05    -0.121559754444508E+06     0.257521157121640E+04     0.112943299314203E+06     0.000000000000000E+00    -0.200486734805071E+05    -0.121625084402318E+06
     0.176640000000000E+02     0.148717948717949E+00    -0.193455135805188E+05    -0.114899527935752E+06     0.157948663913361E+04     0.106587261769904E+06     0.000000000000000E+00    -0.193194121469454E+05    -0.114925629369325E+06
     0.187680000000000E+02     0.148717948717949E+00    -0.187739327507841E+05    -0.108740261660090E+06     0.816126949706596E+03     0.100684759952640E+06     0.000000000000000E+00    -0.187665298879160E+05    -0.108747664522958E+06
     0.198720000000000E+02     0.148717948717949E+00    -0.184454776401534E+05    -0.103256452917383E+06     0.442878684868632E+03     0.953839847435220E+05     0.000000000000000E+00    -0.184431650128004E+05    -0.103258765544736E+06
     0.209760000000000E+02     0.148717948717949E+00    -0.184091659512468E+05    -0.986331746014197E+05     0.643528636419716E+03     0.908454095194497E+05     0.000000000000000E+00    -0.184040041241529E+05    -0.986383364285136E+05
     0.220800000000000E+02     0.148717948717949E+00    -0.187168163982623E+05    -0.950660751999229E+05     0.162943600660708E+04     0.872726118543623E+05     0.000000000000000E+00    -0.186820570105977E+05    -0.951008345875875E+05
     0.000000000000000E+00     0.111538461538461E+00    -0.326041249047679E+05    -0.196107525089888E+06    -0.208013170972486E-09     0.182009000093103E+06     0.000000000000000E+00    -0.326041249047680E+05    -0.196107525089888E+06
     0.111550000000000E+01     0.111538461538461E+00    -0.325198848427450E+05    -0.195673122568290E+06     0.144827866218072E+04     0.181627472939308E+06     0.000000000000000E+00    -0.325070297755713E+05    -0.195685977635463E+06
     0.223100000000000E+01     0.111538461538461E+00    -0.322686814989502E+05    -0.194375399706970E+06     0.284429058398336E+04     0.180485722203526E+06     0.000000000000000E+00    -0.322187915251967E+05    -0.194425289680724E+06
     0.334650000000000E+01     0.111538461538461E+00    -0.318550654002069E+05    -0.192230810616358E+06     0.413738228640409E+04     0.178592436834000E+06     0.000000000000000E+00    -0.317483999275835E+05    -0.192337476088981E+06
     0.446200000000000E+01     0.111538461538461E+00    -0.312866207578876E+05    -0.189266778813831E+06     0.528012681318853E+04     0.175962744601481E+06     0.000000000000000E+00    -0.311103412488609E+05    -0.189443058322857E+06
     0.557750000000000E+01     0.111538461538461E+00    -0.305739654679137E+05    -0.185521697223720E+06     0.622993699220624E+04     0.172619146926164E+06     0.000000000000000E+00    -0.303238838843414E+05    -0.185771778807292E+06
     0.669300000000000E+01     0.111538461538461E+00    -0.297307511107556E+05    -0.181044928177307E+06     0.695067869682536E+04     0.168592756914024E+06     0.000000000000000E+00    -0.294121397151828E+05    -0.181363539572879E+06
     0.780850000000000E+01     0.111538461538461E+00    -0.287736629514328E+05    -0.175896803412826E+06     0.741428410728721E+04     0.163924765125129E+06     0.000000000000000E+00    -0.284009635662788E+05    -0.176269502797980E+06
     0.892400000000000E+01     0.111538461538461E+00    -0.277224199395136E+05    -0.170148624075463E+06     0.760236497208098E+04     0.158668027947762E+06     0.000000000000000E+00    -0.273177737930093E+05    -0.170553270221968E+06
     0.100395000000000E+02     0.111538461538461E+00    -0.265997747091154E+05    -0.163882660717355E+06     0.750782586931835E+04     0.152888635916524E+06     0.000000000000000E+00    -0.261904020267291E+05    -0.164292033399742E+06
     0.111550000000000E+02     0.111538461538461E+00    -0.254315135789046E+05    -0.157192153297591E+06     0.713647746810810E+04     0.146667271373408E+06     0.000000000000000E+00    -0.250461118665167E+05    -0.157577555009979E+06
     0.122705000000000E+02     0.111538461538461E+00    -0.242464565520966E+05    -0.150181311182210E+06     0.650864978993083E+04     0.140100106400702E+06     0.000000000000000E+00    -0.239109658872930E+05    -0.150516801847014E+06
     0.133860000000000E+02     0.111538461538461E+00    -0.230764573164557E+05    -0.142965313144205E+06     0.566080547001352E+04     0.133298930430446E+06     0.000000000000000E+00    -0.228097636954257E+05    -0.143232006765235E+06
     0.145015000000000E+02     0.111538461538461E+00    -0.219564032442952E+05    -0.135670307363519E+06     0.464715301870420E+04     0.126390158083313E+06     0.000000000000000E+00    -0.217668038858919E+05    -0.135859906721923E+06
     0.156170000000000E+02     0.111538461538461E+00    -0.209242153924776E+05    -0.128433411427048E+06     0.354126008284665E+04     0.119512414272380E+06     0.000000000000000E+00    -0.208076956287637E+05    -0.128549931190762E+06
     0.167325000000000E+02     0.111538461538461E+00    -0.200208485024142E+05    -0.121402712328638E+06     0.243766670715492E+04     0.112812651245852E+06     0.000000000000000E+00    -0.199622701006972E+05    -0.121461290730355E+06
     0.178480000000000E+02     0.111538461538461E+00    -0.192902910000652E+05    -0.114737266469087E+06     0.145349859558808E+04     0.106441431592341E+06     0.000000000000000E+00    -0.192681617659643E+05    -0.114759395703188E+06
     0.189635000000000E+02     0.111538461538461E+00    -0.187795649959401E+05    -0.108607099656147E+06     0.730080372724842E+03     0.100549386483438E+06     0.000000000000000E+00    -0.187736316020482E+05    -0.108613033050039E+06
     0.200790000000000E+02     0.111538461538461E+00    -0.185387262850971E+05    -0.103193207104517E+06     0.434548845138110E+03     0.952891297152725E+05     0.000000000000000E+00    -0.185364957153559E+05    -0.103195437674259E+06
     0.211945000000000E+02     0.111538461538461E+00    -0.186208643471436E+05    -0.986875534358528E+05     0.761466262769764E+03     0.908298504871418E+05     0.000000000000000E+00    -0.186136231530710E+05    -0.986947946299254E+05
     0.223100000000000E+02     0.111538461538461E+00    -0.190821023462359E+05    -0.952930726787577E+05     0.193443358030515E+04     0.873941088666605E+05     0.000000000000000E+00    -0.190330329608742E+05    -0.953421420641193E+05
     0.000000000000000E+00     0.743589743589745E-01    -0.327915564129431E+05    -0.196933329166528E+06    -0.217111358956152E-09     0.182757412806272E+06     0.000000000000000E+00    -0.327915564129431E+05    -0.196933329166528E+06
     0.112700000000000E+01     0.743589743589745E-01    -0.327037983612391E+05    -0.196490827862935E+06     0.146874897584135E+04     0.182369567411655E+06     0.000000000000000E+00    -0.326906285142998E+05    -0.196503997709875E+06
     0.225400000000000E+01     0.743589743589745E-01    -0.324421640262672E+05    -0.195169010339772E+06     0.288350037856672E+04     0.181208927155165E+06     0.000000000000000E+00    -0.323910847757829E+05    -0.195220089590257E+06
     0.338100000000000E+01     0.743589743589745E-01    -0.320115728684502E+05    -0.192984935759881E+06     0.419195478659856E+04     0.179284389585277E+06     0.000000000000000E+00    -0.319024828675385E+05    -0.193094025760793E+06
     0.450800000000000E+01     0.743589743589745E-01    -0.314202239884929E+05    -0.189967036061332E+06     0.534520908143724E+04     0.176611472510452E+06     0.000000000000000E+00    -0.312402212576398E+05    -0.190147038792185E+06
     0.563500000000000E+01     0.743589743589745E-01    -0.306795961273818E+05    -0.186155115957423E+06     0.629945459919971E+04     0.173213309031909E+06     0.000000000000000E+00    -0.304247766206858E+05    -0.186409935464119E+06
     0.676200000000000E+01     0.743589743589745E-01    -0.298044476663851E+05    -0.181600352936683E+06     0.701767528215836E+04     0.169121963006657E+06     0.000000000000000E+00    -0.294807040427054E+05    -0.181924096560363E+06
     0.788900000000000E+01     0.743589743589745E-01    -0.288128166270533E+05    -0.176365297262866E+06     0.747134583027986E+04     0.164379982165529E+06     0.000000000000000E+00    -0.284354687380420E+05    -0.176742645151877E+06
     0.901600000000000E+01     0.743589743589745E-01    -0.277260206712183E+05    -0.170523871974956E+06     0.764212985276402E+04     0.159042073623107E+06     0.000000000000000E+00    -0.273182005889460E+05    -0.170931692057228E+06
     0.101430000000000E+02     0.743589743589745E-01    -0.265686571009943E+05    -0.164161372887164E+06     0.752357801958270E+04     0.153176745433279E+06     0.000000000000000E+00    -0.261584901169394E+05    -0.164571539871219E+06
     0.112700000000000E+02     0.743589743589745E-01    -0.253686028587770E+05    -0.157374468588931E+06     0.712282621301859E+04     0.146867705574417E+06     0.000000000000000E+00    -0.249853790339784E+05    -0.157757692413730E+06
     0.123970000000000E+02     0.743589743589745E-01    -0.241570145272443E+05    -0.150271200444925E+06     0.646229367920411E+04     0.140214746658982E+06     0.000000000000000E+00    -0.238267411421821E+05    -0.150601473829987E+06
     0.135240000000000E+02     0.743589743589745E-01    -0.229683283293558E+05    -0.142970982595042E+06     0.558138117966028E+04     0.133333780221822E+06     0.000000000000000E+00    -0.227092947465915E+05    -0.143230016177806E+06
     0.146510000000000E+02     0.743589743589745E-01    -0.218402601283529E+05    -0.135604601954406E+06     0.453816914283555E+04     0.126355649616106E+06     0.000000000000000E+00    -0.216595153522232E+05    -0.135785346730536E+06
     0.157780000000000E+02     0.743589743589745E-01    -0.208138054277590E+05    -0.128314218213372E+06     0.341111581564468E+04     0.119423419202050E+06     0.000000000000000E+00    -0.207056754335489E+05    -0.128422348207582E+06
     0.169050000000000E+02     0.743589743589745E-01    -0.199332393713794E+05    -0.121253363837520E+06     0.230075541500757E+04     0.112688155430069E+06     0.000000000000000E+00    -0.198810212284082E+05    -0.121305581980491E+06
     0.180320000000000E+02     0.743589743589745E-01    -0.192461167433012E+05    -0.114586944067659E+06     0.133139627938817E+04     0.106304021117903E+06     0.000000000000000E+00    -0.192275279544325E+05    -0.114605532856527E+06
     0.191590000000000E+02     0.743589743589745E-01    -0.188032719678934E+05    -0.108491236919827E+06     0.652819020333279E+03     0.100425095514895E+06     0.000000000000000E+00    -0.187985204931886E+05    -0.108495988394532E+06
     0.202860000000000E+02     0.743589743589745E-01    -0.186588191098069E+05    -0.103153893185290E+06     0.441974674011444E+03     0.952088934988506E+05     0.000000000000000E+00    -0.186565073032294E+05    -0.103156204991868E+06
     0.214130000000000E+02     0.743589743589745E-01    -0.188701518739745E+05    -0.987739364305427E+05     0.904682852751804E+03     0.908347363143049E+05     0.000000000000000E+00    -0.188599102292600E+05    -0.987841780752573E+05
     0.225400000000000E+02     0.743589743589745E-01    -0.194979436056108E+05    -0.955617629973069E+05     0.227732989658295E+04     0.875472511310345E+05     0.000000000000000E+00    -0.194298219816422E+05    -0.956298846212756E+05
     0.000000000000000E+00     0.371794871794870E-01    -0.329763528972932E+05    -0.197758941927251E+06    -0.226220679297298E-09     0.183506594718022E+06     0.000000000000000E+00    -0.329763528972932E+05    -0.197758941927251E+06
     0.113850000000000E+01     0.371794871794870E-01    -0.328849878645369E+05    -0.197308288420699E+06     0.148944763006585E+04     0.183112418472362E+06     0.000000000000000E+00    -0.328714966365785E+05    -0.197321779648657E+06
     0.227700000000000E+01     0.371794871794870E-01    -0.326126624671032E+05    -0.195962220791104E+06     0.292312319040879E+04     0.181932850016618E+06     0.000000000000000E+00    -0.325603702246550E+05    -0.196014513033552E+06
     0.341550000000000E+01     0.371794871794870E-01    -0.321646858074992E+05    -0.193738417708658E+06     0.424704118953488E+04     0.179976993672818E+06     0.000000000000000E+00    -0.320531273668552E+05    -0.193849976149302E+06
     0.455400000000000E+01     0.371794871794870E-01    -0.315499063899036E+05    -0.190666343623679E+06     0.541078929240921E+04     0.177260756551762E+06     0.000000000000000E+00    -0.313661235880952E+05    -0.190850126425488E+06
     0.569250000000000E+01     0.371794871794870E-01    -0.307807121201666E+05    -0.186787248766613E+06     0.636931489868512E+04     0.173807906969902E+06     0.000000000000000E+00    -0.305211026443760E+05    -0.187046858242404E+06
     0.683100000000000E+01     0.371794871794870E-01    -0.298730303058096E+05    -0.182154169148032E+06     0.708471172093360E+04     0.169651471207529E+06     0.000000000000000E+00    -0.295441322778808E+05    -0.182483067175961E+06
     0.796950000000000E+01     0.371794871794870E-01    -0.288463276560258E+05    -0.176831926558635E+06     0.752800636287270E+04     0.164835377924519E+06     0.000000000000000E+00    -0.284643649198758E+05    -0.177213889294786E+06
     0.910800000000000E+01     0.371794871794870E-01    -0.277236102816796E+05    -0.170897128569251E+06     0.768094489759698E+04     0.159416223995908E+06     0.000000000000000E+00    -0.273127236359653E+05    -0.171308015214966E+06
     0.102465000000000E+02     0.371794871794870E-01    -0.265314236953071E+05    -0.164438168530834E+06     0.753777944580684E+04     0.153464990629863E+06     0.000000000000000E+00    -0.261206433628465E+05    -0.164848948863295E+06
     0.113850000000000E+02     0.371794871794870E-01    -0.252998528111156E+05    -0.157555225574465E+06     0.710705475403803E+04     0.147068481746632E+06     0.000000000000000E+00    -0.249190349736303E+05    -0.157936043411951E+06
     0.125235000000000E+02     0.371794871794870E-01    -0.240625219449841E+05    -0.150360264611354E+06     0.641339477289099E+04     0.140330188722968E+06     0.000000000000000E+00    -0.237376854680207E+05    -0.150685101088318E+06
     0.136620000000000E+02     0.371794871794870E-01    -0.228565948144631E+05    -0.142977036332837E+06     0.549928923526032E+04     0.133370218580014E+06     0.000000000000000E+00    -0.226053548075956E+05    -0.143228276339704E+06
     0.148005000000000E+02     0.371794871794870E-01    -0.217227745387743E+05    -0.135541077210377E+06     0.442688023456414E+04     0.126323893582575E+06     0.000000000000000E+00    -0.215508539297329E+05    -0.135712997819418E+06
     0.159390000000000E+02     0.371794871794870E-01    -0.207053036388111E+05    -0.128199709495565E+06     0.327974880297354E+04     0.119338725729083E+06     0.000000000000000E+00    -0.206053286018133E+05    -0.128299684532563E+06
     0.170775000000000E+02     0.371794871794870E-01    -0.198519640371384E+05    -0.121112041220120E+06     0.216470148964198E+04     0.112569857934917E+06     0.000000000000000E+00    -0.198057089567839E+05    -0.121158296300474E+06
     0.182160000000000E+02     0.371794871794870E-01    -0.192140770579924E+05    -0.114448966195886E+06     0.121355693893471E+04     0.106175013662040E+06     0.000000000000000E+00    -0.191986154829640E+05    -0.114464427770915E+06
     0.193545000000000E+02     0.371794871794870E-01    -0.188465034272810E+05    -0.108393164014837E+06     0.584932468658180E+03     0.100311828801299E+06     0.000000000000000E+00    -0.188426827220435E+05    -0.108396984720074E+06
     0.204930000000000E+02     0.371794871794870E-01    -0.188076432725833E+05    -0.103139100049072E+06     0.466030648289430E+03     0.951433106262256E+05     0.000000000000000E+00    -0.188050679828714E+05    -0.103141675338784E+06
     0.216315000000000E+02     0.371794871794870E-01    -0.191594361231501E+05    -0.988930254508189E+05     0.107442587720555E+04     0.908605692482728E+05     0.000000000000000E+00    -0.191449606500650E+05    -0.989075009239039E+05
     0.227700000000000E+02     0.371794871794870E-01    -0.199673609099037E+05    -0.958729771524317E+05     0.265985096291306E+04     0.877337867352266E+05     0.000000000000000E+00    -0.198742697589151E+05    -0.959660683034204E+05
     0.000000000000000E+00    -0.444089209850063E-15    -0.331583903781751E+05    -0.198584359501125E+06    -0.235338575323138E-09     0.184256584619398E+06     0.000000000000000E+00    -0.331583903781752E+05    -0.198584359501125E+06
     0.115000000000000E+01    -0.444089209850063E-15    -0.330633285530365E+05    -0.198125501112501E+06     0.151037796896508E+04     0.183856066184653E+06     0.000000000000000E+00    -0.330495092109090E+05    -0.198139320454629E+06
     0.230000000000000E+01    -0.444089209850063E-15    -0.327800498299172E+05    -0.196755030196760E+06     0.296316481631214E+04     0.182657534521927E+06     0.000000000000000E+00    -0.327265204419970E+05    -0.196808559584680E+06
     0.345000000000000E+01    -0.444089209850063E-15    -0.323142744657080E+05    -0.194491259504291E+06     0.430264807123465E+04     0.180670298495028E+06     0.000000000000000E+00    -0.322002029892974E+05    -0.194605330980702E+06
     0.460000000000000E+01    -0.444089209850063E-15    -0.316755362218943E+05    -0.191364710285746E+06     0.547687256455023E+04     0.177910653207469E+06     0.000000000000000E+00    -0.314879159158546E+05    -0.191552330591785E+06
     0.575000000000000E+01    -0.444089209850063E-15    -0.308771823645551E+05    -0.187418112292034E+06     0.643951907951239E+04     0.174403005112148E+06     0.000000000000000E+00    -0.306127309431899E+05    -0.187682563713400E+06
     0.690000000000000E+01    -0.444089209850063E-15    -0.299363736643635E+05    -0.182706403774329E+06     0.715178300262250E+04     0.170181354073853E+06     0.000000000000000E+00    -0.296023003184370E+05    -0.183040477120256E+06
     0.805000000000000E+01    -0.444089209850063E-15    -0.288740843965870E+05    -0.177296731484062E+06     0.758425297444173E+04     0.165291033138836E+06     0.000000000000000E+00    -0.284875431230684E+05    -0.177683272757580E+06
     0.920000000000000E+01    -0.444089209850063E-15    -0.277151023410867E+05    -0.171268450672923E+06     0.771878954040303E+04     0.159790567904955E+06     0.000000000000000E+00    -0.273012600502748E+05    -0.171682292963735E+06
     0.103500000000000E+02    -0.444089209850063E-15    -0.264880287823180E+05    -0.164713125092867E+06     0.755040380162310E+04     0.153753468387053E+06     0.000000000000000E+00    -0.260768190552491E+05    -0.165124334819936E+06
     0.115000000000000E+02    -0.444089209850063E-15    -0.252252785093303E+05    -0.157734526996105E+06     0.708913606571434E+04     0.147269704484727E+06     0.000000000000000E+00    -0.248470948890934E+05    -0.158112710616342E+06
     0.126500000000000E+02    -0.444089209850063E-15    -0.239630798157671E+05    -0.150448637135110E+06     0.636193449759680E+04     0.140446543360390E+06     0.000000000000000E+00    -0.236438945099669E+05    -0.150767822440910E+06
     0.138000000000000E+02    -0.444089209850063E-15    -0.227414744998658E+05    -0.142983644762616E+06     0.541453377031017E+04     0.133408357866412E+06     0.000000000000000E+00    -0.224981491452278E+05    -0.143226970117254E+06
     0.149500000000000E+02    -0.444089209850063E-15    -0.216043178644581E+05    -0.135479947631616E+06     0.431333371582576E+04     0.126294993768528E+06     0.000000000000000E+00    -0.214411729359569E+05    -0.135643092560117E+06
     0.161000000000000E+02    -0.444089209850063E-15    -0.205992787169695E+05    -0.128090151995364E+06     0.314727797585836E+04     0.119258411258809E+06     0.000000000000000E+00    -0.205072068867428E+05    -0.128182223825591E+06
     0.172500000000000E+02    -0.444089209850063E-15    -0.197778393694197E+05    -0.120979072607374E+06     0.202973265267835E+04     0.112457786381810E+06     0.000000000000000E+00    -0.197371465971296E+05    -0.121019765379664E+06
     0.184000000000000E+02    -0.444089209850063E-15    -0.191952956384226E+05    -0.114323732721421E+06     0.110036495992357E+04     0.106054371899817E+06     0.000000000000000E+00    -0.191825692537443E+05    -0.114336459106099E+06
     0.195500000000000E+02    -0.444089209850063E-15    -0.189107568451858E+05    -0.108313364091539E+06     0.527021873411262E+03     0.100209516165033E+06     0.000000000000000E+00    -0.189076501974901E+05    -0.108316470739235E+06
     0.207000000000000E+02    -0.444089209850063E-15    -0.189871458155113E+05    -0.103149406972023E+06     0.507608781950165E+03     0.950924394153647E+05     0.000000000000000E+00    -0.189840843803789E+05    -0.103152468407156E+06
     0.218500000000000E+02    -0.444089209850063E-15    -0.194911988797950E+05    -0.990455101174301E+05     0.127196813815225E+04     0.909079637940347E+05     0.000000000000000E+00    -0.194708669891214E+05    -0.990658420081037E+05
     0.230000000000000E+02    -0.444089209850063E-15    -0.204934658730268E+05    -0.962275307825745E+05     0.308375810924494E+04     0.879557439744040E+05     0.000000000000000E+00    -0.203681081554618E+05    -0.963528885001395E+05
 zone I=   21 ,j=   21 ,f=point, T="    1"
     0.184000000000000E+02     0.743589743589743E+00    -0.176170682840605E+05    -0.963734107193136E+05     0.628226557662743E+03     0.888907331335054E+05     0.000000000000000E+00    -0.176120573416270E+05    -0.963784216617470E+05
     0.180000000000000E+02     0.943589743589743E+00    -0.174970255928868E+05    -0.937074172476023E+05     0.692952455612896E+03     0.863079684809402E+05     0.000000000000000E+00    -0.174907253574157E+05    -0.937137174830734E+05
     0.176000000000000E+02     0.114358974358974E+01    -0.174369633602197E+05    -0.910887700509856E+05     0.776576352601262E+03     0.837538619241807E+05     0.000000000000000E+00    -0.174287761367437E+05    -0.910969572744616E+05
     0.172000000000000E+02     0.134358974358974E+01    -0.174212791547628E+05    -0.885170476822633E+05     0.883168572420377E+03     0.812344044129458E+05     0.000000000000000E+00    -0.174103099168000E+05    -0.885280169202262E+05
     0.168000000000000E+02     0.154358974358974E+01    -0.174358185346412E+05    -0.859916294760356E+05     0.101578613604705E+04     0.787548673117860E+05     0.000000000000000E+00    -0.174207710130363E+05    -0.860066769976404E+05
     0.164000000000000E+02     0.174358974358974E+01    -0.174678304017573E+05    -0.835116923369384E+05     0.117653141786934E+04     0.763198038267286E+05     0.000000000000000E+00    -0.174468778540499E+05    -0.835326448846458E+05
     0.160000000000000E+02     0.194358974358974E+01    -0.175059223561470E+05    -0.810762075278795E+05     0.136661080191377E+04     0.739330631448544E+05     0.000000000000000E+00    -0.174765570205043E+05    -0.811055728635222E+05
     0.156000000000000E+02     0.214358974358974E+01    -0.175400160503353E+05    -0.786839374582729E+05     0.158639333807246E+04     0.715978112970709E+05     0.000000000000000E+00    -0.174988843736234E+05    -0.787250691349848E+05
     0.152000000000000E+02     0.234358974358974E+01    -0.175613025436926E+05    -0.763334324722749E+05     0.183546939833020E+04     0.693165535923630E+05     0.000000000000000E+00    -0.175040361408007E+05    -0.763906988751668E+05
     0.148000000000000E+02     0.254358974358974E+01    -0.175621976567906E+05    -0.740230276370192E+05     0.211270933299160E+04     0.670911543107496E+05     0.000000000000000E+00    -0.174832525121406E+05    -0.741019727816691E+05
     0.144000000000000E+02     0.274358974358974E+01    -0.175362973257580E+05    -0.717508395308520E+05     0.241632212690826E+04     0.649228502128229E+05     0.000000000000000E+00    -0.174288158252045E+05    -0.718583210314055E+05
     0.140000000000000E+02     0.294358974358974E+01    -0.174783329566370E+05    -0.695147630315677E+05     0.274391405570582E+04     0.628122553459586E+05     0.000000000000000E+00    -0.173340447101869E+05    -0.696590512780178E+05
     0.136000000000000E+02     0.314358974358974E+01    -0.173841267797388E+05    -0.673124681046440E+05     0.309254734201113E+04     0.607593556090931E+05     0.000000000000000E+00    -0.171933045794088E+05    -0.675032903049740E+05
     0.132000000000000E+02     0.334358974358974E+01    -0.172505472039995E+05    -0.651413965914776E+05     0.345879881167938E+04     0.587634925744622E+05     0.000000000000000E+00    -0.170020335456801E+05    -0.653899102497970E+05
     0.128000000000000E+02     0.354358974358974E+01    -0.170754641713367E+05    -0.629987589976190E+05     0.383881855002122E+04     0.568233371369909E+05     0.000000000000000E+00    -0.167567812649699E+05    -0.633174419039857E+05
     0.124000000000000E+02     0.374358974358974E+01    -0.168577045110048E+05    -0.608815312810082E+05     0.422838855802986E+04     0.549368546367648E+05     0.000000000000000E+00    -0.164552564135440E+05    -0.612839793784689E+05
     0.120000000000000E+02     0.394358974358974E+01    -0.165970072939513E+05    -0.587864516402100E+05     0.462298140860825E+04     0.531012641301236E+05     0.000000000000000E+00    -0.160963767108543E+05    -0.592870822233070E+05
     0.116000000000000E+02     0.414358974358974E+01    -0.162939791871728E+05    -0.567100173026492E+05     0.501781890279615E+04     0.513129954125560E+05     0.000000000000000E+00    -0.156803138562942E+05    -0.573236826335278E+05
     0.112000000000000E+02     0.434358974358974E+01    -0.159500498080707E+05    -0.546484813128462E+05     0.540793072599729E+04     0.495676481590228E+05     0.000000000000000E+00    -0.152085247834329E+05    -0.553900063374840E+05
     0.108000000000000E+02     0.454358974358974E+01    -0.155674270788075E+05    -0.525978493206522E+05     0.578821310420649E+04     0.478599580863772E+05     0.000000000000000E+00    -0.146837605571435E+05    -0.534815158423161E+05
     0.104000000000000E+02     0.474358974358974E+01    -0.151490525806625E+05    -0.505538763694844E+05     0.615348746023678E+04     0.461837753173669E+05     0.000000000000000E+00    -0.141100452437912E+05    -0.515928837063556E+05
     0.186300000000000E+02     0.706410256410256E+00    -0.175146378953211E+05    -0.960571978932506E+05     0.533749396028602E+03     0.886126144215434E+05     0.000000000000000E+00    -0.175110108775296E+05    -0.960608249110421E+05
     0.182250000000000E+02     0.908910256410256E+00    -0.173584781133972E+05    -0.933217410837823E+05     0.579070096393077E+03     0.859729416022533E+05     0.000000000000000E+00    -0.173540641022037E+05    -0.933261550949758E+05
     0.178200000000000E+02     0.111141025641026E+01    -0.172729929801808E+05    -0.906355648215392E+05     0.644126992594180E+03     0.833598171833612E+05     0.000000000000000E+00    -0.172673379493824E+05    -0.906412198523376E+05
     0.174150000000000E+02     0.131391025641026E+01    -0.172410792394846E+05    -0.879983965425039E+05     0.733427610894919E+03     0.807799419895702E+05     0.000000000000000E+00    -0.172334777885129E+05    -0.880059979934756E+05
     0.170100000000000E+02     0.151641025641026E+01    -0.172471909747055E+05    -0.854097511868027E+05     0.850394663483111E+03     0.782392639135855E+05     0.000000000000000E+00    -0.172365831196771E+05    -0.854203590418310E+05
     0.166050000000000E+02     0.171891025641026E+01    -0.172772921021915E+05    -0.828689277811233E+05     0.997428463515853E+03     0.757429728300064E+05     0.000000000000000E+00    -0.172621280712644E+05    -0.828840918120504E+05
     0.162000000000000E+02     0.192141025641026E+01    -0.173188088646090E+05    -0.803750060211346E+05     0.117596934016396E+04     0.732955119927644E+05     0.000000000000000E+00    -0.172968851948660E+05    -0.803969296908776E+05
     0.157950000000000E+02     0.212391025641026E+01    -0.173605823243093E+05    -0.779268428539041E+05     0.138656005365653E+04     0.709005989503944E+05     0.000000000000000E+00    -0.173288560429001E+05    -0.779585691353133E+05
     0.153900000000000E+02     0.232641025641026E+01    -0.173928208566958E+05    -0.755230690603171E+05     0.162890821032539E+04     0.685612499361087E+05     0.000000000000000E+00    -0.173472118689513E+05    -0.755686780480615E+05
     0.149850000000000E+02     0.252891025641026E+01    -0.174070526435909E+05    -0.731620858374948E+05     0.190194867764953E+04     0.662798025982180E+05     0.000000000000000E+00    -0.173422475691831E+05    -0.732268909119026E+05
     0.145800000000000E+02     0.273141025641026E+01    -0.173960781666032E+05    -0.708420613812133E+05     0.220390599929968E+04     0.640579328733649E+05     0.000000000000000E+00    -0.173053516039519E+05    -0.709327879438646E+05
     0.141750000000000E+02     0.293391025641026E+01    -0.173539227004938E+05    -0.685609274683218E+05     0.253235681018273E+04     0.618966628009460E+05     0.000000000000000E+00    -0.172289940141469E+05    -0.686858561546688E+05
     0.137700000000000E+02     0.313641025641026E+01    -0.172757888065441E+05    -0.663163760391615E+05     0.288429225148625E+04     0.597963571496109E+05     0.000000000000000E+00    -0.171067336906166E+05    -0.664854311550890E+05
     0.133650000000000E+02     0.333891025641026E+01    -0.171580088259219E+05    -0.641058557799836E+05     0.325618038572294E+04     0.577567078788372E+05     0.000000000000000E+00    -0.169332446998414E+05    -0.643306199060642E+05
     0.129600000000000E+02     0.354141025641026E+01    -0.169979973730492E+05    -0.619265687053682E+05     0.364402861177513E+04     0.557767066767964E+05     0.000000000000000E+00    -0.167043596933879E+05    -0.622202063850295E+05
     0.125550000000000E+02     0.374391025641026E+01    -0.167942038289682E+05    -0.597754667406432E+05     0.404344607993927E+04     0.538546070684833E+05     0.000000000000000E+00    -0.164171262925036E+05    -0.601525442771078E+05
     0.121500000000000E+02     0.394641025641026E+01    -0.165460648347092E+05    -0.576492483043019E+05     0.444970610697043E+04     0.519878788254094E+05     0.000000000000000E+00    -0.160698700176081E+05    -0.581254431214030E+05
     0.117450000000000E+02     0.414891025641026E+01    -0.162539567846570E+05    -0.555443548904226E+05     0.485780859112673E+04     0.501731585636604E+05     0.000000000000000E+00    -0.156622551327527E+05    -0.561360565423269E+05
     0.113400000000000E+02     0.435141025641026E+01    -0.159191483199178E+05    -0.534569676510863E+05     0.526254242721388E+04     0.484062014137116E+05     0.000000000000000E+00    -0.151953331161287E+05    -0.541807828548755E+05
     0.109350000000000E+02     0.455391025641026E+01    -0.155437528216866E+05    -0.513830039787958E+05     0.565854792162963E+04     0.466818394060113E+05     0.000000000000000E+00    -0.146715678047459E+05    -0.522551889957364E+05
     0.105300000000000E+02     0.475641025641026E+01    -0.151306809046135E+05    -0.493181140888939E+05     0.604037920740829E+04     0.449939526795978E+05     0.000000000000000E+00    -0.140948269584949E+05    -0.503539680350125E+05
     0.188600000000000E+02     0.669230769230769E+00    -0.174258419123043E+05    -0.957676454042206E+05     0.454150025686216E+03     0.883566000943398E+05     0.000000000000000E+00    -0.174232092780545E+05    -0.957702780384705E+05
     0.184500000000000E+02     0.874230769230769E+00    -0.172283131180007E+05    -0.929608022630533E+05     0.478176598468446E+03     0.856601055321082E+05     0.000000000000000E+00    -0.172252940208212E+05    -0.929638213602328E+05
     0.180400000000000E+02     0.107923076923077E+01    -0.171130573300880E+05    -0.902051354779098E+05     0.522760630094414E+03     0.829876941413500E+05     0.000000000000000E+00    -0.171093186937556E+05    -0.902088741142423E+05
     0.176300000000000E+02     0.128423076923077E+01    -0.170613704834622E+05    -0.875005364193482E+05     0.592878014810195E+03     0.803468087736955E+05     0.000000000000000E+00    -0.170563806537648E+05    -0.875055262490456E+05
     0.172200000000000E+02     0.148923076923077E+01    -0.170562215659891E+05    -0.848466699867227E+05     0.692344372796682E+03     0.777441092411873E+05     0.000000000000000E+00    -0.170491513849496E+05    -0.848537401677622E+05
     0.168100000000000E+02     0.169423076923077E+01    -0.170822021060564E+05    -0.822429709743677E+05     0.823881414306649E+03     0.751854586555850E+05     0.000000000000000E+00    -0.170717867577242E+05    -0.822533863226999E+05
     0.164000000000000E+02     0.189923076923077E+01    -0.171254756601250E+05    -0.796886404377809E+05     0.989183303801896E+03     0.726759307475822E+05     0.000000000000000E+00    -0.171098396364877E+05    -0.797042764614182E+05
     0.159900000000000E+02     0.210423076923077E+01    -0.171737273002808E+05    -0.771826420598057E+05     0.118898302409035E+04     0.702198301020513E+05     0.000000000000000E+00    -0.171501786975349E+05    -0.772061906625516E+05
     0.155800000000000E+02     0.230923076923077E+01    -0.172161131017864E+05    -0.747236985168151E+05     0.142311874046317E+04     0.678207182663563E+05     0.000000000000000E+00    -0.171809172543661E+05    -0.747588943642355E+05
     0.151700000000000E+02     0.251423076923077E+01    -0.172432096306330E+05    -0.723102878448940E+05     0.169060016483185E+04     0.654814396723869E+05     0.000000000000000E+00    -0.171913557791484E+05    -0.723621416963786E+05
     0.147600000000000E+02     0.271923076923077E+01    -0.172469634310916E+05    -0.699406398060230E+05     0.198967491986535E+04     0.632041423155781E+05     0.000000000000000E+00    -0.171719415636096E+05    -0.700156616735050E+05
     0.143500000000000E+02     0.292423076923077E+01    -0.172206405132651E+05    -0.676127322542609E+05     0.231789490312713E+04     0.609902891995851E+05     0.000000000000000E+00    -0.171142484717717E+05    -0.677191242957543E+05
     0.139400000000000E+02     0.312923076923077E+01    -0.171587758406397E+05    -0.653242875019282E+05     0.267218265121240E+04     0.588406577134648E+05     0.000000000000000E+00    -0.170109788810592E+05    -0.654720844615087E+05
     0.135300000000000E+02     0.333423076923077E+01    -0.170571228176367E+05    -0.630727686857901E+05     0.304889770388507E+04     0.567553253731443E+05     0.000000000000000E+00    -0.168559885718963E+05    -0.632739029315304E+05
     0.131200000000000E+02     0.353923076923077E+01    -0.169126027771642E+05    -0.608553761332393E+05     0.344390296821497E+04     0.547336417259368E+05     0.000000000000000E+00    -0.166443334279533E+05    -0.611236454824501E+05
     0.127100000000000E+02     0.374423076923077E+01    -0.167232544681686E+05    -0.586690437284794E+05     0.385263108271488E+04     0.527741876595403E+05     0.000000000000000E+00    -0.163723343498532E+05    -0.590199638467949E+05
     0.123000000000000E+02     0.394923076923077E+01    -0.164881835431866E+05    -0.565104352787084E+05     0.427015078147773E+04     0.508747248253182E+05     0.000000000000000E+00    -0.160376539013871E+05    -0.569609649205079E+05
     0.118900000000000E+02     0.415423076923077E+01    -0.162075120458966E+05    -0.543759408803005E+05     0.469123325831359E+04     0.490321393064091E+05     0.000000000000000E+00    -0.156393752194013E+05    -0.549440777067958E+05
     0.114800000000000E+02     0.435923076923077E+01    -0.158823278986703E+05    -0.522616732849903E+05     0.511041853088690E+04     0.472423849426027E+05     0.000000000000000E+00    -0.151780711369730E+05    -0.529659300466876E+05
     0.110700000000000E+02     0.456423076923077E+01    -0.155146343901246E+05    -0.501634642660558E+05     0.552208180485347E+04     0.455004327669490E+05     0.000000000000000E+00    -0.146558499285814E+05    -0.510222487275991E+05
     0.106600000000000E+02     0.476923076923077E+01    -0.151072996626734E+05    -0.480768609845011E+05     0.592049983799767E+04     0.438002337263455E+05     0.000000000000000E+00    -0.140763641872094E+05    -0.491077964599651E+05
     0.190900000000000E+02     0.632051282051282E+00    -0.173524051327333E+05    -0.955057712851127E+05     0.390624075906975E+03     0.881229892724217E+05     0.000000000000000E+00    -0.173504527746394E+05    -0.955077236432066E+05
     0.186750000000000E+02     0.839551282051282E+00    -0.171079089111251E+05    -0.926256174780751E+05     0.391391566653280E+03     0.853698687824326E+05     0.000000000000000E+00    -0.171058804697597E+05    -0.926276459194405E+05
     0.182600000000000E+02     0.104705128205128E+01    -0.169582355090984E+05    -0.897984894838425E+05     0.413516721687946E+03     0.826380028822749E+05     0.000000000000000E+00    -0.169558880355635E+05    -0.898008369573774E+05
     0.178450000000000E+02     0.125455128205128E+01    -0.168829754684071E+05    -0.870244584548308E+05     0.462476479773578E+03     0.799356058728656E+05     0.000000000000000E+00    -0.168799262714463E+05    -0.870275076517915E+05
     0.174300000000000E+02     0.146205128205128E+01    -0.168635147296225E+05    -0.843033543721110E+05     0.542507936657960E+03     0.772700833039493E+05     0.000000000000000E+00    -0.168591509022482E+05    -0.843077181994853E+05
     0.170150000000000E+02     0.166955128205128E+01    -0.168829809636138E+05    -0.816347621845479E+05     0.656678855713333E+03     0.746480072645828E+05     0.000000000000000E+00    -0.168763219533288E+05    -0.816414211948329E+05
     0.166000000000000E+02     0.187705128205128E+01    -0.169261899030277E+05    -0.790180179479376E+05     0.806958178575640E+03     0.720751179812576E+05     0.000000000000000E+00    -0.169157042791677E+05    -0.790285035717976E+05
     0.161850000000000E+02     0.208455128205128E+01    -0.169795916737687E+05    -0.764522049641465E+05     0.994286535783690E+03     0.695563424252815E+05     0.000000000000000E+00    -0.169629734440491E+05    -0.764688231938660E+05
     0.157700000000000E+02     0.229205128205128E+01    -0.170312171264787E+05    -0.739361499202494E+05     0.121864675741845E+04     0.670958217686415E+05     0.000000000000000E+00    -0.170051311727747E+05    -0.739622358739534E+05
     0.153550000000000E+02     0.249955128205128E+01    -0.170706241680174E+05    -0.714684190276680E+05     0.147913438374224E+04     0.646969405943730E+05     0.000000000000000E+00    -0.170304346101456E+05    -0.715086085855397E+05
     0.149400000000000E+02     0.270705128205128E+01    -0.170888440929420E+05    -0.690473141613088E+05     0.177402817583793E+04     0.623623518357860E+05     0.000000000000000E+00    -0.170283435499348E+05    -0.691078147043161E+05
     0.145250000000000E+02     0.291455128205128E+01    -0.170783279149876E+05    -0.666708689987020E+05     0.210086062624823E+04     0.600939925482546E+05     0.000000000000000E+00    -0.169894894927294E+05    -0.667597074209602E+05
     0.141100000000000E+02     0.312205128205128E+01    -0.170328926985465E+05    -0.643368451591393E+05     0.245648846961487E+04     0.578930868528937E+05     0.000000000000000E+00    -0.169056697160885E+05    -0.644640681415973E+05
     0.136950000000000E+02     0.332955128205128E+01    -0.169476678901487E+05    -0.620427283428128E+05     0.283716319331783E+04     0.557601337618436E+05     0.000000000000000E+00    -0.167698683214508E+05    -0.622205279115107E+05
     0.132800000000000E+02     0.353705128205128E+01    -0.168190416499420E+05    -0.597857244699525E+05     0.323860154811459E+04     0.536948791082523E+05     0.000000000000000E+00    -0.165763043036163E+05    -0.600284618162783E+05
     0.128650000000000E+02     0.374455128205128E+01    -0.166446071831715E+05    -0.575627558199655E+05     0.365605605877933E+04     0.516962724437819E+05     0.000000000000000E+00    -0.163205039805389E+05    -0.578868590225981E+05
     0.124500000000000E+02     0.395205128205128E+01    -0.164231090716600E+05    -0.553704571705740E+05     0.408438553474216E+04     0.497624114868565E+05     0.000000000000000E+00    -0.159993916795007E+05    -0.557941745627333E+05
     0.120350000000000E+02     0.415955128205128E+01    -0.161543896052877E+05    -0.532051719369533E+05     0.451812558072837E+04     0.478904784290575E+05     0.000000000000000E+00    -0.156113886886625E+05    -0.537481728535785E+05
     0.116200000000000E+02     0.436705128205128E+01    -0.158393351134726E+05    -0.510629483108707E+05     0.495155910739763E+04     0.460766740297071E+05     0.000000000000000E+00    -0.151565067263614E+05    -0.517457766979819E+05
     0.112050000000000E+02     0.457455128205128E+01    -0.154798222966500E+05    -0.489395353998232E+05     0.537878684198321E+04     0.443161568267264E+05     0.000000000000000E+00    -0.146364193859696E+05    -0.497829383105036E+05
     0.107900000000000E+02     0.478205128205128E+01    -0.150786645577526E+05    -0.468303793661767E+05     0.579379783893125E+04     0.426029958458979E+05     0.000000000000000E+00    -0.140544941005297E+05    -0.478545498233997E+05
     0.193200000000000E+02     0.594871794871795E+00    -0.172961246287813E+05    -0.952725851161227E+05     0.344398406506544E+03     0.879120624646911E+05     0.000000000000000E+00    -0.172946035550111E+05    -0.952741061898929E+05
     0.189000000000000E+02     0.804871794871794E+00    -0.169987041272500E+05    -0.923171977070238E+05     0.319864663107034E+03     0.851026153829193E+05     0.000000000000000E+00    -0.169973457416447E+05    -0.923185560926292E+05
     0.184800000000000E+02     0.101487179487179E+01    -0.168096564759670E+05    -0.894166309788034E+05     0.317463394852658E+03     0.823112261205526E+05     0.000000000000000E+00    -0.168082684401603E+05    -0.894180190146101E+05
     0.180600000000000E+02     0.122487179487179E+01    -0.167067575056888E+05    -0.865711525330821E+05     0.343206818427645E+03     0.795469063990707E+05     0.000000000000000E+00    -0.167050715528121E+05    -0.865728384859589E+05
     0.176400000000000E+02     0.143487179487179E+01    -0.166697077009330E+05    -0.837807733474009E+05     0.401783465110438E+03     0.768178392349221E+05     0.000000000000000E+00    -0.166673023723084E+05    -0.837831786760256E+05
     0.172200000000000E+02     0.164487179487179E+01    -0.166800752195662E+05    -0.810452436761045E+05     0.496633042634829E+03     0.741313402298998E+05     0.000000000000000E+00    -0.166762434934506E+05    -0.810490754022201E+05
     0.168000000000000E+02     0.185487179487179E+01    -0.167212389123917E+05    -0.783640489512255E+05     0.630021297051221E+03     0.714938514464270E+05     0.000000000000000E+00    -0.167148004424291E+05    -0.783704874211881E+05
     0.163800000000000E+02     0.206487179487179E+01    -0.167783313427371E+05    -0.757364056833687E+05     0.803114874587814E+03     0.689109571818903E+05     0.000000000000000E+00    -0.167673935047446E+05    -0.757473435213612E+05
     0.159600000000000E+02     0.227487179487179E+01    -0.168381818060419E+05    -0.731612573625948E+05     0.101605618351179E+04     0.663874122351769E+05     0.000000000000000E+00    -0.168198583319036E+05    -0.731795808367331E+05
     0.155400000000000E+02     0.248487179487179E+01    -0.168892593494455E+05    -0.706372703593041E+05     0.126803825599057E+04     0.639271744206408E+05     0.000000000000000E+00    -0.168593600653368E+05    -0.706671696434129E+05
     0.151200000000000E+02     0.269487179487179E+01    -0.169216157913746E+05    -0.681628298251213E+05     0.155737960995298E+04     0.615334342203836E+05     0.000000000000000E+00    -0.168743258324036E+05    -0.682101197840922E+05
     0.147000000000000E+02     0.290487179487179E+01    -0.169268287411306E+05    -0.657360355937784E+05     0.188159911095047E+04     0.592086356526166E+05     0.000000000000000E+00    -0.168544004109186E+05    -0.658084639239905E+05
     0.142800000000000E+02     0.311487179487179E+01    -0.168979446184782E+05    -0.633546980820000E+05     0.223749083401835E+04     0.569544837355009E+05     0.000000000000000E+00    -0.167904294490297E+05    -0.634622132514485E+05
     0.138600000000000E+02     0.332487179487179E+01    -0.168294216732319E+05    -0.610163341903859E+05     0.262119892553693E+04     0.547719353890765E+05     0.000000000000000E+00    -0.166744736461778E+05    -0.611712822174400E+05
     0.134400000000000E+02     0.353487179487179E+01    -0.167170730048447E+05    -0.587181632042959E+05     0.302829246509281E+04     0.526611722685837E+05     0.000000000000000E+00    -0.164998555048110E+05    -0.589353807043297E+05
     0.130200000000000E+02     0.374487179487179E+01    -0.165580095819952E+05    -0.564571026947340E+05     0.345384032734000E+04     0.506215558594397E+05     0.000000000000000E+00    -0.162612374405986E+05    -0.567538748361307E+05
     0.126000000000000E+02     0.395487179487179E+01    -0.163505832621753E+05    -0.542297644192315E+05     0.389248604386120E+04     0.486515671521364E+05     0.000000000000000E+00    -0.159547261116250E+05    -0.546256215697818E+05
     0.121800000000000E+02     0.416487179487179E+01    -0.160943298112783E+05    -0.520324502227317E+05     0.433852266502899E+04     0.467487352794340E+05     0.000000000000000E+00    -0.155779929806413E+05    -0.525487870533686E+05
     0.117600000000000E+02     0.437487179487179E+01    -0.157899119231858E+05    -0.498611479384738E+05     0.478596762186699E+04     0.449095615229048E+05     0.000000000000000E+00    -0.151303959392511E+05    -0.505206639224085E+05
     0.113400000000000E+02     0.458487179487179E+01    -0.154390622393565E+05    -0.477115272888765E+05     0.522863758791114E+04     0.431294469335901E+05     0.000000000000000E+00    -0.146130823164775E+05    -0.485375072117555E+05
     0.109200000000000E+02     0.479487179487179E+01    -0.150445263684127E+05    -0.455789357864225E+05     0.566022334107086E+04     0.414026333051665E+05     0.000000000000000E+00    -0.140290510800257E+05    -0.465944110748095E+05
     0.195500000000000E+02     0.557692307692307E+00    -0.172588709099433E+05    -0.950690875931459E+05     0.316731363590610E+03     0.877240895470178E+05     0.000000000000000E+00    -0.172575816564393E+05    -0.950703768466500E+05
     0.191250000000000E+02     0.770192307692307E+00    -0.169021987152764E+05    -0.920365478406465E+05     0.264775865471895E+03     0.848587105602039E+05     0.000000000000000E+00    -0.169012656481888E+05    -0.920374809077342E+05
     0.187000000000000E+02     0.982692307692307E+00    -0.166684998761202E+05    -0.890605604580988E+05     0.235697704286294E+03     0.820078230200711E+05     0.000000000000000E+00    -0.166677324878393E+05    -0.890613278463797E+05
     0.182750000000000E+02     0.119519230769231E+01    -0.165336213254626E+05    -0.861416070082452E+05     0.236080211431908E+03     0.791812577764101E+05     0.000000000000000E+00    -0.165328206526001E+05    -0.861424076811078E+05
     0.178500000000000E+02     0.140769230769231E+01    -0.164754710982209E+05    -0.832798961959207E+05     0.271094748278284E+03     0.763880043760834E+05     0.000000000000000E+00    -0.164743710041444E+05    -0.832809962899972E+05
     0.174250000000000E+02     0.162019230769231E+01    -0.164739578774161E+05    -0.804753595190624E+05     0.344580131458122E+03     0.736361548519697E+05     0.000000000000000E+00    -0.164721027301477E+05    -0.804772146663307E+05
     0.170000000000000E+02     0.183269230769231E+01    -0.165109305403477E+05    -0.777276469197197E+05     0.459122058158996E+03     0.709328874558304E+05     0.000000000000000E+00    -0.165074873434376E+05    -0.777310901166298E+05
     0.165750000000000E+02     0.204519230769231E+01    -0.165701177047692E+05    -0.750361224350644E+05     0.616132531415000E+03     0.682844780888761E+05     0.000000000000000E+00    -0.165636254337745E+05    -0.750426147060591E+05
     0.161500000000000E+02     0.225769230769231E+01    -0.166370672750620E+05    -0.723998598484007E+05     0.815929285398570E+03     0.656963286369673E+05     0.000000000000000E+00    -0.166251310341708E+05    -0.724117960892919E+05
     0.157250000000000E+02     0.247019230769231E+01    -0.166990859884109E+05    -0.698176383401747E+05     0.105781521071207E+04     0.631730026922693E+05     0.000000000000000E+00    -0.166780287576784E+05    -0.698386955709072E+05
     0.153000000000000E+02     0.268269230769231E+01    -0.167451789609786E+05    -0.672879381389853E+05     0.134015777967961E+04     0.607182603505886E+05     0.000000000000000E+00    -0.167096691874796E+05    -0.673234479124842E+05
     0.148750000000000E+02     0.289519230769231E+01    -0.167659892340805E+05    -0.648089361725936E+05     0.166046847163867E+04     0.583350850116345E+05     0.000000000000000E+00    -0.167086682322780E+05    -0.648662571743961E+05
     0.144500000000000E+02     0.310769230769231E+01    -0.167537373203597E+05    -0.623785017189328E+05     0.201548219823184E+04     0.560256964627489E+05     0.000000000000000E+00    -0.166648761014884E+05    -0.624673629378040E+05
     0.140250000000000E+02     0.332019230769231E+01    -0.167021607499617E+05    -0.599941920571188E+05     0.240123672869856E+04     0.537915460642628E+05     0.000000000000000E+00    -0.165693809478173E+05    -0.601269718592632E+05
     0.136000000000000E+02     0.353269230769231E+01    -0.166064536167092E+05    -0.576532481184596E+05     0.281315211516677E+04     0.516332916253646E+05     0.000000000000000E+00    -0.164145507360319E+05    -0.578451509991369E+05
     0.131750000000000E+02     0.374519230769231E+01    -0.164632061242771E+05    -0.553525901374656E+05     0.324611011794468E+04     0.495507515842538E+05     0.000000000000000E+00    -0.161941141681428E+05    -0.556216820935999E+05
     0.127500000000000E+02     0.395769230769231E+01    -0.162703441323669E+05    -0.530888133028596E+05     0.369453363081243E+04     0.475428403686889E+05     0.000000000000000E+00    -0.159032772510348E+05    -0.534558801841916E+05
     0.123250000000000E+02     0.417019230769231E+01    -0.160270687028819E+05    -0.508581834085867E+05     0.415246610631382E+04     0.456074892482299E+05     0.000000000000000E+00    -0.155388663200091E+05    -0.513463857914596E+05
     0.119000000000000E+02     0.438269230769231E+01    -0.157337956461021E+05    -0.486566325048246E+05     0.461365098104800E+04     0.437415594784780E+05     0.000000000000000E+00    -0.150994815061512E+05    -0.492909466447755E+05
     0.114750000000000E+02     0.459519230769231E+01    -0.153920950668584E+05    -0.464797545489930E+05     0.507161110096123E+04     0.419407569108817E+05     0.000000000000000E+00    -0.145856378936639E+05    -0.472862117221875E+05
     0.110500000000000E+02     0.480769230769231E+01    -0.150046309107083E+05    -0.443228010567642E+05     0.551972814663853E+04     0.401995593002830E+05     0.000000000000000E+00    -0.139998667125301E+05    -0.453275652549424E+05
     0.197800000000000E+02     0.520512820512820E+00    -0.172425890859077E+05    -0.948962700961690E+05     0.308913035300685E+03     0.875593390066822E+05     0.000000000000000E+00    -0.172413602226776E+05    -0.948974989593991E+05
     0.193500000000000E+02     0.735512820512820E+00    -0.168199549228960E+05    -0.917846663093171E+05     0.227335725010414E+03     0.846385074760937E+05     0.000000000000000E+00    -0.168192655177662E+05    -0.917853557144469E+05
     0.189200000000000E+02     0.950512820512820E+00    -0.165359968687284E+05    -0.887312744529931E+05     0.169345888234777E+03     0.817282338979107E+05     0.000000000000000E+00    -0.165355996423026E+05    -0.887316716794189E+05
     0.184900000000000E+02     0.116551282051282E+01    -0.163645137657965E+05    -0.857368084323922E+05     0.142135458444621E+03     0.788391847789027E+05     0.000000000000000E+00    -0.163642225486206E+05    -0.857370996495681E+05
     0.180600000000000E+02     0.138051282051282E+01    -0.162815094915349E+05    -0.828016922506723E+05     0.151391499073816E+03     0.759811819515957E+05     0.000000000000000E+00    -0.162811649454689E+05    -0.828020367967383E+05
     0.176300000000000E+02     0.159551282051282E+01    -0.162651288638246E+05    -0.799260553980511E+05     0.201380412119103E+03     0.731631247284711E+05     0.000000000000000E+00    -0.162644918378373E+05    -0.799266924240384E+05
     0.172000000000000E+02     0.181051282051282E+01    -0.162955935463978E+05    -0.771097282409018E+05     0.295032146739910E+03     0.703929605886202E+05     0.000000000000000E+00    -0.162941622686284E+05    -0.771111595186712E+05
     0.167700000000000E+02     0.202551282051282E+01    -0.163551379542415E+05    -0.743522374108503E+05     0.434024407858196E+03     0.676776903935159E+05     0.000000000000000E+00    -0.163518900911627E+05    -0.743554852739291E+05
     0.163400000000000E+02     0.224051282051282E+01    -0.164279451590022E+05    -0.716528011938713E+05     0.618866864758229E+03     0.650233957984564E+05     0.000000000000000E+00    -0.164210108156888E+05    -0.716597355371847E+05
     0.159100000000000E+02     0.245551282051282E+01    -0.165000827943894E+05    -0.690103249193849E+05     0.848985359686461E+03     0.624352779387271E+05     0.000000000000000E+00    -0.164863599891534E+05    -0.690240477246209E+05
     0.154800000000000E+02     0.267051282051282E+01    -0.165594389615804E+05    -0.664233963493528E+05     0.112280611645131E+04     0.599176977575322E+05     0.000000000000000E+00    -0.165341691058461E+05    -0.664486662050872E+05
     0.150500000000000E+02     0.288551282051282E+01    -0.165956581346240E+05    -0.638902810673752E+05     0.143783994902303E+04     0.574742096268172E+05     0.000000000000000E+00    -0.165519855921665E+05    -0.639339536098327E+05
     0.146200000000000E+02     0.310051282051282E+01    -0.166000770658447E+05    -0.614089178677869E+05     0.179076647013352E+04     0.551075813005874E+05     0.000000000000000E+00    -0.165286237784805E+05    -0.614803711551512E+05
     0.141900000000000E+02     0.331551282051282E+01    -0.165656606912472E+05    -0.589769141447539E+05     0.217751829987611E+04     0.528197948280309E+05     0.000000000000000E+00    -0.164541536796038E+05    -0.590884211563973E+05
     0.137600000000000E+02     0.353051282051282E+01    -0.164869380359199E+05    -0.565915412813701E+05     0.259336527430544E+04     0.506120249177608E+05     0.000000000000000E+00    -0.163199334436752E+05    -0.567585458736148E+05
     0.133300000000000E+02     0.374551282051282E+01    -0.163599381194397E+05    -0.542497300387532E+05     0.303299865403727E+04     0.484845934357024E+05     0.000000000000000E+00    -0.161186889801556E+05    -0.544909791780372E+05
     0.129000000000000E+02     0.396051282051282E+01    -0.161821258612757E+05    -0.519480659451417E+05     0.349061533284830E+04     0.464369012495728E+05     0.000000000000000E+00    -0.158446400109268E+05    -0.522855517954906E+05
     0.124700000000000E+02     0.417551282051282E+01    -0.159523379861936E+05    -0.496827846849913E+05     0.396000204627598E+04     0.444673414598875E+05     0.000000000000000E+00    -0.154936652717268E+05    -0.501414573994580E+05
     0.120400000000000E+02     0.439051282051282E+01    -0.156707189296596E+05    -0.474497674880710E+05     0.443461958021835E+04     0.425732010697446E+05     0.000000000000000E+00    -0.150634910242466E+05    -0.480569953934841E+05
     0.116100000000000E+02     0.460551282051282E+01    -0.153386567432450E+05    -0.452445365185600E+05     0.490768697953388E+04     0.407505611589369E+05     0.000000000000000E+00    -0.145538775212924E+05    -0.460293157405126E+05
     0.111800000000000E+02     0.482051282051282E+01    -0.149587190000296E+05    -0.430622502641439E+05     0.537226575664127E+04     0.389942084007775E+05     0.000000000000000E+00    -0.139667697737733E+05    -0.440541994904002E+05
     0.200100000000000E+02     0.483333333333333E+00    -0.172493000294276E+05    -0.947551142576624E+05     0.322265507559820E+03     0.874180885143735E+05     0.000000000000000E+00    -0.172479600878638E+05    -0.947564541992262E+05
     0.195750000000000E+02     0.700833333333333E+00    -0.167535982809607E+05    -0.915625447100910E+05     0.208785624743049E+03     0.844423550820508E+05     0.000000000000000E+00    -0.167530155819703E+05    -0.915631274090815E+05
     0.191400000000000E+02     0.918333333333333E+00    -0.164134309537801E+05    -0.884297652108269E+05     0.119563624820214E+03     0.814728858685558E+05     0.000000000000000E+00    -0.164132324512997E+05    -0.884299637133073E+05
     0.187050000000000E+02     0.113583333333333E+01    -0.162004244617991E+05    -0.853577412834410E+05     0.624392291044843E+02     0.785211933546169E+05     0.000000000000000E+00    -0.162003680880945E+05    -0.853577976571457E+05
     0.182700000000000E+02     0.135333333333333E+01    -0.160885619714477E+05    -0.823471306651090E+05     0.436495959048543E+02     0.755979533854641E+05     0.000000000000000E+00    -0.160885332161270E+05    -0.823471594204297E+05
     0.178350000000000E+02     0.157083333333333E+01    -0.160541154929711E+05    -0.793982784213243E+05     0.679185401632587E+02     0.727129008333258E+05     0.000000000000000E+00    -0.160540426698003E+05    -0.793983512444951E+05
     0.174000000000000E+02     0.178833333333333E+01    -0.160755779717295E+05    -0.765112120606125E+05     0.138545753091923E+03     0.698747837756537E+05     0.000000000000000E+00    -0.160752603639950E+05    -0.765115296683470E+05
     0.169650000000000E+02     0.200583333333333E+01    -0.161335953794976E+05    -0.736856366492435E+05     0.257496021810534E+03     0.670913602030683E+05     0.000000000000000E+00    -0.161324433287177E+05    -0.736867887000234E+05
     0.165300000000000E+02     0.222333333333333E+01    -0.162108988057639E+05    -0.709209299259463E+05     0.425488448983442E+03     0.643694232122067E+05     0.000000000000000E+00    -0.162075899158261E+05    -0.709242388158840E+05
     0.160950000000000E+02     0.244083333333333E+01    -0.162922365490302E+05    -0.682161374166213E+05     0.642085672456981E+03     0.617148422228599E+05     0.000000000000000E+00    -0.162842977967388E+05    -0.682240761689126E+05
     0.156600000000000E+02     0.265833333333333E+01    -0.163643062081110E+05    -0.655699675490544E+05     0.905783084896648E+03     0.591326091426625E+05     0.000000000000000E+00    -0.163476381022715E+05    -0.655866356548939E+05
     0.152250000000000E+02     0.287583333333333E+01    -0.164156867734329E+05    -0.629807867676304E+05     0.121409805342437E+04     0.566268797307549E+05     0.000000000000000E+00    -0.163840529235527E+05    -0.630124206175105E+05
     0.147900000000000E+02     0.309333333333333E+01    -0.164367707183341E+05    -0.604466146480459E+05     0.156365913925569E+04     0.542010018182169E+05     0.000000000000000E+00    -0.163812842422029E+05    -0.605021011241771E+05
     0.143550000000000E+02     0.331083333333333E+01    -0.164196960903637E+05    -0.579651190120238E+05     0.195029531733704E+04     0.518575236511856E+05     0.000000000000000E+00    -0.163283429122092E+05    -0.580564721901784E+05
     0.139200000000000E+02     0.352833333333333E+01    -0.163582786025815E+05    -0.555336110420257E+05     0.236912519598298E+04     0.495981775426935E+05     0.000000000000000E+00    -0.162155261209814E+05    -0.556763635236257E+05
     0.134850000000000E+02     0.374583333333333E+01    -0.162479437248568E+05    -0.531490403959658E+05     0.281464623651342E+04     0.474238363402254E+05     0.000000000000000E+00    -0.160344901497986E+05    -0.533624939710239E+05
     0.130500000000000E+02     0.396333333333333E+01    -0.160856587751683E+05    -0.508079903219243E+05     0.328082397289084E+04     0.453344429902548E+05     0.000000000000000E+00    -0.157783814096671E+05    -0.511152676874255E+05
     0.126150000000000E+02     0.418083333333333E+01    -0.158698650109035E+05    -0.485066727728611E+05     0.376118123135755E+04     0.433289167033945E+05     0.000000000000000E+00    -0.154420218652241E+05    -0.489345159185405E+05
     0.121800000000000E+02     0.439833333333333E+01    -0.156004097201580E+05    -0.462409235213287E+05     0.424888735007292E+04     0.414050428077520E+05     0.000000000000000E+00    -0.150221347635704E+05    -0.468191984779163E+05
     0.117450000000000E+02     0.461583333333333E+01    -0.152784783130349E+05    -0.440061972741862E+05     0.473684739875059E+04     0.395593571388721E+05     0.000000000000000E+00    -0.145175838300985E+05    -0.447670917571226E+05
     0.113100000000000E+02     0.483333333333333E+01    -0.149065264129445E+05    -0.417975627873121E+05     0.521779139829576E+04     0.377870394738954E+05     0.000000000000000E+00    -0.139295861967208E+05    -0.427745030035358E+05
     0.202400000000000E+02     0.446153846153845E+00    -0.172811015391929E+05    -0.946465915309718E+05     0.358143119818477E+03     0.873006368804724E+05     0.000000000000000E+00    -0.172794436456582E+05    -0.946482494245065E+05
     0.198000000000000E+02     0.666153846153846E+00    -0.167048185878523E+05    -0.913711674337613E+05     0.210398037585837E+03     0.842706071422468E+05     0.000000000000000E+00    -0.167042257239529E+05    -0.913717602976607E+05
     0.193600000000000E+02     0.886153846153845E+00    -0.163021387991547E+05    -0.881570203751357E+05     0.875362883690206E+02     0.812421994801899E+05     0.000000000000000E+00    -0.163020321593517E+05    -0.881571270149386E+05
     0.189200000000000E+02     0.110615384615385E+01    -0.160423865347469E+05    -0.850053876930727E+05    -0.191368598756656E+01     0.782277752889478E+05     0.000000000000000E+00    -0.160423864816432E+05    -0.850053877461764E+05
     0.184800000000000E+02     0.132615384615385E+01    -0.158974027178319E+05    -0.819171801839129E+05    -0.511286746178086E+02     0.752388813180249E+05     0.000000000000000E+00    -0.158973631215184E+05    -0.819172197802264E+05
     0.180400000000000E+02     0.154615384615385E+01    -0.158414729309114E+05    -0.788929769297806E+05    -0.548962311934579E+02     0.722861131599988E+05     0.000000000000000E+00    -0.158414251351615E+05    -0.788930247255305E+05
     0.176000000000000E+02     0.176615384615385E+01    -0.158512555135307E+05    -0.759330201260042E+05    -0.952020748373084E+01     0.693790488172264E+05     0.000000000000000E+00    -0.158512540050139E+05    -0.759330216345209E+05
     0.171600000000000E+02     0.198615384615385E+01    -0.159057096600218E+05    -0.730372099085374E+05     0.872737130849172E+02     0.665262341180710E+05     0.000000000000000E+00    -0.159055763415690E+05    -0.730373432269903E+05
     0.167200000000000E+02     0.220615384615385E+01    -0.159860235172478E+05    -0.702050991813804E+05     0.236432481869262E+03     0.637352040349181E+05     0.000000000000000E+00    -0.159849925285255E+05    -0.702061301701027E+05
     0.162800000000000E+02     0.242615384615385E+01    -0.160755422823463E+05    -0.674358884440000E+05     0.437670151449586E+03     0.610125257579001E+05     0.000000000000000E+00    -0.160718129217081E+05    -0.674396178046382E+05
     0.158400000000000E+02     0.264615384615385E+01    -0.161596963004734E+05    -0.647284206187517E+05     0.689562342070062E+03     0.583638508820661E+05     0.000000000000000E+00    -0.161499080999101E+05    -0.647382088193150E+05
     0.154000000000000E+02     0.286615384615385E+01    -0.162259291625476E+05    -0.620811758782993E+05     0.989640708079095E+03     0.557939654414764E+05     0.000000000000000E+00    -0.162045808316592E+05    -0.621025242091876E+05
     0.149600000000000E+02     0.308615384615385E+01    -0.162636258029934E+05    -0.594922664730367E+05     0.133448740436965E+04     0.533068279319490E+05     0.000000000000000E+00    -0.162224687667505E+05    -0.595334235092796E+05
     0.145200000000000E+02     0.330615384615385E+01    -0.162640405974855E+05    -0.569594315585084E+05     0.171982955281962E+04     0.509055870589864E+05     0.000000000000000E+00    -0.161914881593653E+05    -0.570319839966286E+05
     0.140800000000000E+02     0.352615384615385E+01    -0.162202254606922E+05    -0.544800320228307E+05     0.214063370873220E+04     0.485925728760392E+05     0.000000000000000E+00    -0.161008297358749E+05    -0.545994277476480E+05
     0.136400000000000E+02     0.374615384615385E+01    -0.161269579440197E+05    -0.520510453141121E+05     0.259120032727618E+04     0.463692573749592E+05     0.000000000000000E+00    -0.159410173751719E+05    -0.522369858829599E+05
     0.132000000000000E+02     0.396615384615385E+01    -0.159806693333555E+05    -0.496690602678749E+05     0.306525822992635E+04     0.442361835610264E+05     0.000000000000000E+00    -0.157040374562553E+05    -0.499456921449752E+05
     0.127600000000000E+02     0.418615384615385E+01    -0.157793727468126E+05    -0.473302719344754E+05     0.355605907090380E+04     0.421928656405253E+05     0.000000000000000E+00    -0.153835402021346E+05    -0.477261044791534E+05
     0.123200000000000E+02     0.440615384615385E+01    -0.155225912324728E+05    -0.450304764065253E+05     0.405647180361631E+04     0.402376671315283E+05     0.000000000000000E+00    -0.149751029924555E+05    -0.455779646465427E+05
     0.118800000000000E+02     0.462615384615385E+01    -0.152112858661314E+05    -0.427650656463122E+05     0.455907714709867E+04     0.383676683172723E+05     0.000000000000000E+00    -0.144765294169234E+05    -0.434998220955202E+05
     0.114400000000000E+02     0.484615384615385E+01    -0.148477838490401E+05    -0.405290223132210E+05     0.505626205245306E+04     0.365785391972258E+05     0.000000000000000E+00    -0.138881390182002E+05    -0.414886671440609E+05
     0.204700000000000E+02     0.408974358974358E+00    -0.173401695027012E+05    -0.945716627587113E+05     0.417932720800229E+03     0.872073174465241E+05     0.000000000000000E+00    -0.173379079557965E+05    -0.945739243056161E+05
     0.200250000000000E+02     0.631474358974359E+00    -0.166753708938517E+05    -0.912115112919136E+05     0.233476784487890E+03     0.841236324717833E+05     0.000000000000000E+00    -0.166746395590421E+05    -0.912122426267232E+05
     0.195800000000000E+02     0.853974358974359E+00    -0.162035110676959E+05    -0.879140226657673E+05     0.744792057401592E+02     0.810365963894328E+05     0.000000000000000E+00    -0.162034337129820E+05    -0.879141000204812E+05
     0.191350000000000E+02     0.107647435897436E+01    -0.158914772812118E+05    -0.846807271746472E+05    -0.498001242866129E+02     0.779594137555628E+05     0.000000000000000E+00    -0.158914412283244E+05    -0.846807632275345E+05
     0.186900000000000E+02     0.129897435897436E+01    -0.157088415686351E+05    -0.815128089137738E+05    -0.131914374972977E+03     0.749045133727465E+05     0.000000000000000E+00    -0.157085771266403E+05    -0.815130733557687E+05
     0.182450000000000E+02     0.152147435897436E+01    -0.156277846599373E+05    -0.784111003059830E+05    -0.166129819003900E+03     0.718833729828528E+05     0.000000000000000E+00    -0.156273450698450E+05    -0.784115398960753E+05
     0.178000000000000E+02     0.174397435897436E+01    -0.156230198993042E+05    -0.753760766284936E+05    -0.148325875136232E+03     0.689064273872610E+05     0.000000000000000E+00    -0.156226517101123E+05    -0.753764448176856E+05
     0.173550000000000E+02     0.196647435897436E+01    -0.156717171636138E+05    -0.724078505396767E+05    -0.758951509663473E+02     0.659830392204789E+05     0.000000000000000E+00    -0.156716156398882E+05    -0.724079520634023E+05
     0.169100000000000E+02     0.218897435897436E+01    -0.157534267809150E+05    -0.695061666058238E+05     0.523565143023674E+02     0.631215143096633E+05     0.000000000000000E+00    -0.157533757844077E+05    -0.695062176023311E+05
     0.164650000000000E+02     0.241147435897436E+01    -0.158500034489057E+05    -0.666703958279153E+05     0.236310007092018E+03     0.603291456315040E+05     0.000000000000000E+00    -0.158489046535307E+05    -0.666714946232903E+05
     0.160200000000000E+02     0.263397435897436E+01    -0.159455301534110E+05    -0.638995301683894E+05     0.474632896682580E+03     0.576122715372796E+05     0.000000000000000E+00    -0.159408328534586E+05    -0.639042274683418E+05
     0.155750000000000E+02     0.285647435897436E+01    -0.160262420868614E+05    -0.611921770779104E+05     0.764879392444376E+03     0.549763353520704E+05     0.000000000000000E+00    -0.160132926638605E+05    -0.612051265009113E+05
     0.151300000000000E+02     0.307897435897436E+01    -0.160804505667714E+05    -0.585465540221373E+05     0.110359030107062E+04     0.524259348523942E+05     0.000000000000000E+00    -0.160517902932284E+05    -0.585752142956803E+05
     0.146850000000000E+02     0.330147435897436E+01    -0.160984669542175E+05    -0.559604830084926E+05     0.148639298380974E+04     0.499648516726759E+05     0.000000000000000E+00    -0.160431185079970E+05    -0.560158314547130E+05
     0.142400000000000E+02     0.352397435897436E+01    -0.160725265723164E+05    -0.534313851129303E+05     0.190810131369798E+04     0.475960525710994E+05     0.000000000000000E+00    -0.159753233307021E+05    -0.535285883545446E+05
     0.137950000000000E+02     0.374647435897436E+01    -0.159967126247035E+05    -0.509562750067052E+05     0.236281563279176E+04     0.453216568848977E+05     0.000000000000000E+00    -0.158377396590233E+05    -0.511152479723854E+05
     0.133500000000000E+02     0.396897435897436E+01    -0.158668801140111E+05    -0.485317554831409E+05     0.284402270940016E+04     0.431428675955717E+05     0.000000000000000E+00    -0.156211096356961E+05    -0.487775259614559E+05
     0.129050000000000E+02     0.419147435897436E+01    -0.156805797603466E+05    -0.461540119843984E+05     0.334469569531744E+04     0.410598673351249E+05     0.000000000000000E+00    -0.153177924452520E+05    -0.465167992994931E+05
     0.124600000000000E+02     0.441397435897436E+01    -0.154369819197709E+05    -0.438188071282449E+05     0.385739408305539E+04     0.390716854369630E+05     0.000000000000000E+00    -0.149220626994193E+05    -0.443337263485965E+05
     0.120150000000000E+02     0.463647435897436E+01    -0.151368005027765E+05    -0.415214752348224E+05     0.437436366307590E+04     0.371760476691224E+05     0.000000000000000E+00    -0.144304752483958E+05    -0.422278004892030E+05
     0.115700000000000E+02     0.485897435897436E+01    -0.147822168927657E+05    -0.392569168534159E+05     0.488763648102337E+04     0.353692262955271E+05     0.000000000000000E+00    -0.138422482948825E+05    -0.401968854512991E+05
     0.207000000000000E+02     0.371794871794871E+00    -0.174287590591302E+05    -0.945312777411548E+05     0.503053924247546E+03     0.871385129559046E+05     0.000000000000000E+00    -0.174254770330261E+05    -0.945345597672589E+05
     0.202500000000000E+02     0.596794871794871E+00    -0.166670764855083E+05    -0.910845451439812E+05     0.279357292569085E+03     0.840018264300723E+05     0.000000000000000E+00    -0.166660278151006E+05    -0.910855938143889E+05
     0.198000000000000E+02     0.821794871794872E+00    -0.161189932442851E+05    -0.877017495590013E+05     0.816379126531566E+02     0.808565081147579E+05     0.000000000000000E+00    -0.161189001388997E+05    -0.877018426643866E+05
     0.193500000000000E+02     0.104679487179487E+01    -0.157488188621885E+05    -0.843847363511209E+05    -0.800683003220035E+02     0.777165897982729E+05     0.000000000000000E+00    -0.157487254573908E+05    -0.843848297559187E+05
     0.189000000000000E+02     0.127179487179487E+01    -0.155237245886564E+05    -0.811349840941660E+05    -0.197651674021657E+03     0.745953867208617E+05     0.000000000000000E+00    -0.155231291751554E+05    -0.811355795076670E+05
     0.184500000000000E+02     0.149679487179487E+01    -0.154136629429357E+05    -0.779535987831790E+05    -0.264823078528929E+03     0.715052757880374E+05     0.000000000000000E+00    -0.154125415793698E+05    -0.779547201467449E+05
     0.180000000000000E+02     0.172179487179487E+01    -0.153912872611825E+05    -0.748413080467142E+05    -0.277008225918757E+03     0.684575725776298E+05     0.000000000000000E+00    -0.153899965653961E+05    -0.748425987425006E+05
     0.175500000000000E+02     0.194679487179487E+01    -0.154318712435619E+05    -0.717984553591335E+05    -0.231241969832043E+03     0.654624834694837E+05     0.000000000000000E+00    -0.154309225973113E+05    -0.717994040053841E+05
     0.171000000000000E+02     0.217179487179487E+01    -0.155132285013475E+05    -0.688249942529029E+05    -0.126062605049761E+03     0.625291124624291E+05     0.000000000000000E+00    -0.155129304115861E+05    -0.688252923426644E+05
     0.166500000000000E+02     0.239679487179487E+01    -0.156156321040215E+05    -0.659204825308875E+05     0.385938329329235E+02     0.596655046760110E+05     0.000000000000000E+00    -0.156156024948874E+05    -0.659205121400216E+05
     0.162000000000000E+02     0.262179487179487E+01    -0.157217341263743E+05    -0.630840764786474E+05     0.261499268332552E+03     0.568787103994201E+05     0.000000000000000E+00    -0.157202903679050E+05    -0.630855202371168E+05
     0.157500000000000E+02     0.284679487179487E+01    -0.158164851956043E+05    -0.603145250767343E+05     0.540239285503235E+03     0.541748550683387E+05     0.000000000000000E+00    -0.158099272555287E+05    -0.603210830168099E+05
     0.153000000000000E+02     0.307179487179487E+01    -0.158870540384177E+05    -0.576101642129860E+05     0.871318829362615E+03     0.515592019348651E+05     0.000000000000000E+00    -0.158688659002167E+05    -0.576283523511870E+05
     0.148500000000000E+02     0.329679487179487E+01    -0.159227470281283E+05    -0.549689108948234E+05     0.125026790581767E+04     0.490361956599792E+05     0.000000000000000E+00    -0.158827541005926E+05    -0.550089038223590E+05
     0.144000000000000E+02     0.352179487179487E+01    -0.159149277317572E+05    -0.523882574615456E+05     0.167174728219069E+04     0.466094768260446E+05     0.000000000000000E+00    -0.158384638533159E+05    -0.524647213399868E+05
     0.139500000000000E+02     0.374679487179487E+01    -0.158569364571328E+05    -0.498652657966258E+05     0.212965418764508E+04     0.442818596774731E+05     0.000000000000000E+00    -0.157240931303004E+05    -0.499981091234582E+05
     0.135000000000000E+02     0.397179487179487E+01    -0.157440097999902E+05    -0.473965615400075E+05     0.261722801361132E+04     0.420552684981547E+05     0.000000000000000E+00    -0.155290609540101E+05    -0.476115103859876E+05
     0.130500000000000E+02     0.419679487179487E+01    -0.155732001910715E+05    -0.449783283003997E+05     0.312715601421281E+04     0.399306321540187E+05     0.000000000000000E+00    -0.152443140655724E+05    -0.453072144258988E+05
     0.126000000000000E+02     0.442179487179487E+01    -0.153432954432252E+05    -0.426063018675731E+05     0.365167900669180E+04     0.379077416274722E+05     0.000000000000000E+00    -0.148626535529910E+05    -0.430869437578073E+05
     0.121500000000000E+02     0.464679487179487E+01    -0.150547382985058E+05    -0.402757644246557E+05     0.418269707183525E+04     0.359850818593708E+05     0.000000000000000E+00    -0.143791686240421E+05    -0.409513340991194E+05
     0.117000000000000E+02     0.487179487179487E+01    -0.147095459752742E+05    -0.379815387604288E+05     0.471187525440074E+04     0.341596566733270E+05     0.000000000000000E+00    -0.137917309760428E+05    -0.388993537596602E+05
     0.209300000000000E+02     0.334615384615384E+00    -0.175492057622086E+05    -0.945263748046283E+05     0.614959364667623E+03     0.870946719394930E+05     0.000000000000000E+00    -0.175442932551345E+05    -0.945312873117024E+05
     0.204750000000000E+02     0.562115384615384E+00    -0.166818238700100E+05    -0.909912295243009E+05     0.349406853257681E+03     0.839056237017598E+05     0.000000000000000E+00    -0.166801809763691E+05    -0.909928724179417E+05
     0.200200000000000E+02     0.789615384615384E+00    -0.160500864629144E+05    -0.875211729676662E+05     0.110288410016220E+03     0.807023859017601E+05     0.000000000000000E+00    -0.160499162751501E+05    -0.875213431554305E+05
     0.195650000000000E+02     0.101711538461538E+01    -0.156155789922221E+05    -0.841183886829631E+05    -0.915375547155779E+02     0.774997897808433E+05     0.000000000000000E+00    -0.156154566744807E+05    -0.841185110007045E+05
     0.191100000000000E+02     0.124461538461538E+01    -0.153429346383212E+05    -0.807846718681269E+05    -0.247257604299647E+03     0.743120334863371E+05     0.000000000000000E+00    -0.153420004416946E+05    -0.807856060647535E+05
     0.186550000000000E+02     0.147211538461538E+01    -0.151997492877470E+05    -0.775214232543211E+05    -0.349991571176702E+03     0.711524049220449E+05     0.000000000000000E+00    -0.151977838360975E+05    -0.775233887059705E+05
     0.182000000000000E+02     0.169961538461538E+01    -0.151564965102424E+05    -0.743296429894683E+05    -0.394680852242246E+03     0.680331210349397E+05     0.000000000000000E+00    -0.151538641329736E+05    -0.743322753667372E+05
     0.177450000000000E+02     0.192711538461538E+01    -0.151864425358175E+05    -0.712099245217824E+05    -0.377976704222385E+03     0.649652565586290E+05     0.000000000000000E+00    -0.151838925356859E+05    -0.712124745219140E+05
     0.172900000000000E+02     0.215461538461538E+01    -0.152655612318096E+05    -0.681624484833000E+05    -0.298128539049669E+03     0.619587391237601E+05     0.000000000000000E+00    -0.152638810232508E+05    -0.681641286918588E+05
     0.168350000000000E+02     0.238211538461538E+01    -0.153724490799432E+05    -0.651869765734115E+05    -0.154872219239026E+03     0.590223905281767E+05     0.000000000000000E+00    -0.153719675904327E+05    -0.651874580629221E+05
     0.163800000000000E+02     0.260961538461538E+01    -0.154882401533896E+05    -0.622828454423932E+05     0.506816467364607E+02     0.561639960979435E+05     0.000000000000000E+00    -0.154881852618848E+05    -0.622829003338980E+05
     0.159250000000000E+02     0.283711538461538E+01    -0.155965210938272E+05    -0.594489605749383E+05     0.316159409069620E+03     0.533903857110386E+05     0.000000000000000E+00    -0.155942418232085E+05    -0.594512398455570E+05
     0.154700000000000E+02     0.306461538461538E+01    -0.156832460885008E+05    -0.566837901736890E+05     0.638036081243389E+03     0.507075114349666E+05     0.000000000000000E+00    -0.156733195981374E+05    -0.566937166640524E+05
     0.150150000000000E+02     0.329211538461538E+01    -0.157366518472823E+05    -0.539853590427674E+05     0.101174704465490E+04     0.481205080862580E+05     0.000000000000000E+00    -0.157099080191890E+05    -0.540121028708607E+05
     0.145600000000000E+02     0.351961538461538E+01    -0.157471725797299E+05    -0.513512424713075E+05     0.143179975323963E+04     0.456337246104644E+05     0.000000000000000E+00    -0.156896862904894E+05    -0.514087287605480E+05
     0.141050000000000E+02     0.374711538461538E+01    -0.157073549721482E+05    -0.487785601169865E+05     0.189188543809556E+04     0.432507162952521E+05     0.000000000000000E+00    -0.155994788533841E+05    -0.488864362357506E+05
     0.136500000000000E+02     0.397461538461538E+01    -0.156117731646484E+05    -0.462639698895565E+05     0.238499081210729E+04     0.409741907936673E+05     0.000000000000000E+00    -0.154273115053156E+05    -0.464484315488893E+05
     0.131950000000000E+02     0.420211538461538E+01    -0.154569437282077E+05    -0.438036618343758E+05     0.290350977457020E+04     0.388059050981551E+05     0.000000000000000E+00    -0.151625981997534E+05    -0.440980073628301E+05
     0.127400000000000E+02     0.442961538461538E+01    -0.152412406417295E+05    -0.413933520159405E+05     0.343935511581451E+04     0.367465162867168E+05     0.000000000000000E+00    -0.147964828938022E+05    -0.418381097638678E+05
     0.122850000000000E+02     0.465711538461538E+01    -0.149648102691034E+05    -0.390282764014165E+05     0.398407022182954E+04     0.347953962526037E+05     0.000000000000000E+00    -0.143223405552933E+05    -0.396707461152266E+05
     0.118300000000000E+02     0.488461538461538E+01    -0.146294863362647E+05    -0.367031847441699E+05     0.452894077888776E+04     0.329504296611047E+05     0.000000000000000E+00    -0.137364007151874E+05    -0.375962703652472E+05
     0.211600000000000E+02     0.297435897435897E+00    -0.177039267430882E+05    -0.945578803699022E+05     0.755134953078115E+03     0.870763266422913E+05     0.000000000000000E+00    -0.176965078175808E+05    -0.945652992954096E+05
     0.207000000000000E+02     0.527435897435898E+00    -0.167215697595519E+05    -0.909325162691680E+05     0.445024880427782E+03     0.838355123887973E+05     0.000000000000000E+00    -0.167189011502424E+05    -0.909351848784776E+05
     0.202400000000000E+02     0.757435897435897E+00    -0.159983483337602E+05    -0.873732589212583E+05     0.161737420254519E+03     0.805747117253967E+05     0.000000000000000E+00    -0.159979818344038E+05    -0.873736254206146E+05
     0.197800000000000E+02     0.987435897435897E+00    -0.154929716285355E+05    -0.838826541960727E+05    -0.829981032000121E+02     0.773095138345205E+05     0.000000000000000E+00    -0.154928709017193E+05    -0.838827549228889E+05
     0.193200000000000E+02     0.121743589743590E+01    -0.151673919424573E+05    -0.804628370530349E+05    -0.279621819310075E+03     0.740549870276094E+05     0.000000000000000E+00    -0.151661945093461E+05    -0.804640344861461E+05
     0.188600000000000E+02     0.144743589743590E+01    -0.149867149115247E+05    -0.771155250810864E+05    -0.420625332441754E+03     0.708253360015967E+05     0.000000000000000E+00    -0.149838673185799E+05    -0.771183726740311E+05
     0.184000000000000E+02     0.167743589743590E+01    -0.149191097108193E+05    -0.738420120386804E+05    -0.500433743328987E+03     0.676336957396664E+05     0.000000000000000E+00    -0.149148598205389E+05    -0.738462619289608E+05
     0.179400000000000E+02     0.190743589743590E+01    -0.149357192561686E+05    -0.706431613937764E+05    -0.515287670449484E+03     0.644920312876756E+05     0.000000000000000E+00    -0.149309533100241E+05    -0.706479273399209E+05
     0.174800000000000E+02     0.213743589743590E+01    -0.150105704058086E+05    -0.675193998638336E+05    -0.463125271400750E+03     0.614111173283551E+05     0.000000000000000E+00    -0.150064859815945E+05    -0.675234842880476E+05
     0.170200000000000E+02     0.236743589743590E+01    -0.151204841620469E+05    -0.644707109558053E+05    -0.343464264276053E+03     0.584005749254325E+05     0.000000000000000E+00    -0.151180938592064E+05    -0.644731012586459E+05
     0.165600000000000E+02     0.259743589743590E+01    -0.152449858729259E+05    -0.614966285061332E+05    -0.157283949040385E+03     0.554689453099694E+05     0.000000000000000E+00    -0.152444510172290E+05    -0.614971633618302E+05
     0.161000000000000E+02     0.282743589743590E+01    -0.153662154338856E+05    -0.585962302207412E+05     0.930927710935383E+02     0.526237824034847E+05     0.000000000000000E+00    -0.153660149661345E+05    -0.585964306884923E+05
     0.156400000000000E+02     0.305743589743590E+01    -0.154688374894264E+05    -0.557681312150293E+05     0.404117368289309E+03     0.498717471739137E+05     0.000000000000000E+00    -0.154647854474868E+05    -0.557721832569688E+05
     0.151800000000000E+02     0.328743589743590E+01    -0.155399516347724E+05    -0.530104775538680E+05     0.771133668710842E+03     0.472186881582067E+05     0.000000000000000E+00    -0.155240886201707E+05    -0.530263405684697E+05
     0.147200000000000E+02     0.351743589743590E+01    -0.155690026175344E+05    -0.503209397915923E+05     0.118849583114643E+04     0.446696938393774E+05     0.000000000000000E+00    -0.155284041869772E+05    -0.503615382221495E+05
     0.142600000000000E+02     0.374743589743590E+01    -0.155476905393727E+05    -0.476967065119958E+05     0.164968632563271E+04     0.422291043656233E+05     0.000000000000000E+00    -0.154632606900784E+05    -0.477811363612900E+05
     0.138000000000000E+02     0.397743589743590E+01    -0.154698810576600E+05    -0.451344778683244E+05     0.214743391207874E+04     0.399004727463483E+05     0.000000000000000E+00    -0.153152335302291E+05    -0.452891253957554E+05
     0.133400000000000E+02     0.420743589743590E+01    -0.153315155871449E+05    -0.426304591232709E+05     0.267383161888999E+04     0.376864696317219E+05     0.000000000000000E+00    -0.150720889418423E+05    -0.428898857685736E+05
     0.128800000000000E+02     0.443743589743590E+01    -0.151305215016142E+05    -0.401803541889688E+05     0.322045472159234E+04     0.355887315944894E+05     0.000000000000000E+00    -0.147231194904898E+05    -0.405877562000932E+05
     0.124200000000000E+02     0.466743589743590E+01    -0.148667223355563E+05    -0.377793591669865E+05     0.377847872145618E+04     0.336076609371337E+05     0.000000000000000E+00    -0.142597023621376E+05    -0.383863791404052E+05
     0.119600000000000E+02     0.489743589743590E+01    -0.145417479858244E+05    -0.354221558883208E+05     0.433879732412037E+04     0.317421956530509E+05     0.000000000000000E+00    -0.136760675946847E+05    -0.362878362794606E+05
     0.213900000000000E+02     0.260256410256410E+00    -0.178954218732151E+05    -0.946267085205835E+05     0.925100132752888E+03     0.870841125049631E+05     0.000000000000000E+00    -0.178842701522923E+05    -0.946378602415063E+05
     0.209250000000000E+02     0.492756410256410E+00    -0.167883400557067E+05    -0.909093481438921E+05     0.567643168537018E+03     0.837920494270877E+05     0.000000000000000E+00    -0.167839931117137E+05    -0.909136950878851E+05
     0.204600000000000E+02     0.725256410256410E+00    -0.159653937702563E+05    -0.872589672460597E+05     0.237322643638121E+03     0.804740104451777E+05     0.000000000000000E+00    -0.159646037774091E+05    -0.872597572389069E+05
     0.199950000000000E+02     0.957756410256410E+00    -0.153822576601568E+05    -0.836784992096947E+05    -0.532107856368830E+02     0.771462853247951E+05     0.000000000000000E+00    -0.153822162027365E+05    -0.836785406671150E+05
     0.195300000000000E+02     0.119025641025641E+01    -0.149980546590706E+05    -0.801704429113865E+05    -0.293606350815990E+03     0.738247891253690E+05     0.000000000000000E+00    -0.149967319679426E+05    -0.801717656025145E+05
     0.190650000000000E+02     0.142275641025641E+01    -0.147752612050941E+05    -0.767368559028967E+05    -0.475688639844361E+03     0.705246421229059E+05     0.000000000000000E+00    -0.147716094858618E+05    -0.767405076221291E+05
     0.186000000000000E+02     0.165525641025641E+01    -0.146796124548224E+05    -0.733793475923493E+05    -0.593333065666365E+03     0.672599094739179E+05     0.000000000000000E+00    -0.146736156958103E+05    -0.733853443513614E+05
     0.181350000000000E+02     0.188775641025641E+01    -0.146800074974141E+05    -0.700990724254222E+05    -0.642341334807802E+03     0.640434655014308E+05     0.000000000000000E+00    -0.146725633628766E+05    -0.701065165599597E+05
     0.176700000000000E+02     0.212025641025641E+01    -0.147484145686557E+05    -0.668967230665388E+05    -0.620316915958015E+03     0.608869531467040E+05     0.000000000000000E+00    -0.147410367906280E+05    -0.669041008445664E+05
     0.172050000000000E+02     0.235275641025641E+01    -0.148597762650265E+05    -0.637725235800580E+05    -0.526540508552125E+03     0.578008132890996E+05     0.000000000000000E+00    -0.148541087692947E+05    -0.637781910757898E+05
     0.167400000000000E+02     0.258525641025641E+01    -0.149919147577630E+05    -0.607262226114660E+05    -0.361845511353066E+03     0.547943616107677E+05     0.000000000000000E+00    -0.149890520495439E+05    -0.607290853196851E+05
     0.162750000000000E+02     0.281775641025641E+01    -0.151254370069240E+05    -0.577570865685671E+05    -0.128493491033879E+03     0.518758927699059E+05     0.000000000000000E+00    -0.151250497259386E+05    -0.577574738495525E+05
     0.158100000000000E+02     0.305025641025641E+01    -0.152436399754547E+05    -0.548638928026748E+05     0.169950349240243E+03     0.490527931212116E+05     0.000000000000000E+00    -0.152429109899555E+05    -0.548646217881741E+05
     0.153450000000000E+02     0.328275641025641E+01    -0.153324158432519E+05    -0.520449227898028E+05     0.528741701229728E+03     0.463316443524682E+05     0.000000000000000E+00    -0.153248023664061E+05    -0.520525362666486E+05
     0.148800000000000E+02     0.351525641025641E+01    -0.153801572212282E+05    -0.492979553118561E+05     0.942081683038512E+03     0.437183014810797E+05     0.000000000000000E+00    -0.153540106461540E+05    -0.493241018869303E+05
     0.144150000000000E+02     0.374775641025641E+01    -0.153776623653771E+05    -0.466202596378218E+05     0.140324137053185E+04     0.412179300239195E+05     0.000000000000000E+00    -0.153147633037249E+05    -0.466831586994740E+05
     0.139500000000000E+02     0.398025641025641E+01    -0.153180403908371E+05    -0.440085887049607E+05     0.190468632875418E+04     0.388349892741612E+05     0.000000000000000E+00    -0.151921459478097E+05    -0.441344831479881E+05
     0.134850000000000E+02     0.421275641025641E+01    -0.151966164859570E+05    -0.414591722999978E+05     0.243820114334695E+04     0.365731520872913E+05     0.000000000000000E+00    -0.149721733608946E+05    -0.416836154250602E+05
     0.130200000000000E+02     0.444525641025641E+01    -0.150108371263602E+05    -0.389677102403136E+05     0.299501395196649E+04     0.344351571322106E+05     0.000000000000000E+00    -0.146420857070408E+05    -0.393364616596330E+05
     0.125550000000000E+02     0.467775641025641E+01    -0.147601752890092E+05    -0.365293655551351E+05     0.356592097570180E+04     0.324225979965784E+05     0.000000000000000E+00    -0.141909412101601E+05    -0.370985996339841E+05
     0.120900000000000E+02     0.491025641025641E+01    -0.144460356662706E+05    -0.341387576667267E+05     0.414141105049246E+04     0.305356654931634E+05     0.000000000000000E+00    -0.136105377254738E+05    -0.349742556075235E+05
     0.216200000000000E+02     0.223076923076923E+00    -0.181262749272016E+05    -0.947337605715076E+05     0.112640813496791E+04     0.871187891996265E+05     0.000000000000000E+00    -0.181097162177622E+05    -0.947503192809470E+05
     0.211500000000000E+02     0.458076923076923E+00    -0.168842308337931E+05    -0.909226584698518E+05     0.718726150764203E+03     0.837758773292550E+05     0.000000000000000E+00    -0.168772544753438E+05    -0.909296348283011E+05
     0.206800000000000E+02     0.693076923076922E+00    -0.159528958161672E+05    -0.871792512452567E+05     0.338413014610245E+03     0.804008631188958E+05     0.000000000000000E+00    -0.159512879733594E+05    -0.871808590880645E+05
     0.202100000000000E+02     0.928076923076922E+00    -0.152847455970468E+05    -0.835068860643375E+05    -0.906815035023400E+00     0.770106613495862E+05     0.000000000000000E+00    -0.152847455849933E+05    -0.835068860763910E+05
     0.197400000000000E+02     0.116307692307692E+01    -0.148359194481203E+05    -0.799084509215757E+05    -0.288045366132960E+03     0.736219980974387E+05     0.000000000000000E+00    -0.148346444322971E+05    -0.799097259373989E+05
     0.192700000000000E+02     0.139807692307692E+01    -0.145661201973114E+05    -0.763863674459390E+05    -0.514119780869664E+03     0.702508999015831E+05     0.000000000000000E+00    -0.145618448848927E+05    -0.763906427583577E+05
     0.188000000000000E+02     0.163307692307692E+01    -0.144385142360490E+05    -0.729425837075002E+05    -0.672420943460479E+03     0.669123690192698E+05     0.000000000000000E+00    -0.144307867358079E+05    -0.729503112077413E+05
     0.183300000000000E+02     0.186807692307692E+01    -0.144196315265376E+05    -0.695785670240562E+05    -0.758282107954472E+03     0.636202046453525E+05     0.000000000000000E+00    -0.144092092236838E+05    -0.695889893269099E+05
     0.178600000000000E+02     0.210307692307692E+01    -0.144792656090273E+05    -0.662952967677476E+05    -0.768947526038931E+03     0.603869368031231E+05     0.000000000000000E+00    -0.144678569749106E+05    -0.663067054018643E+05
     0.173900000000000E+02     0.233807692307692E+01    -0.145903736090839E+05    -0.630932571716781E+05    -0.703441074843841E+03     0.572238446477751E+05     0.000000000000000E+00    -0.145801736937146E+05    -0.631034570870474E+05
     0.169200000000000E+02     0.257307692307692E+01    -0.147289762448589E+05    -0.599724301365333E+05    -0.562434884746331E+03     0.541410345105657E+05     0.000000000000000E+00    -0.147219855290256E+05    -0.599794208523665E+05
     0.164500000000000E+02     0.280807692307692E+01    -0.148740578343596E+05    -0.569322880372003E+05    -0.348117967175235E+03     0.511475554749207E+05     0.000000000000000E+00    -0.148711766428016E+05    -0.569351692287583E+05
     0.159800000000000E+02     0.304307692307692E+01    -0.150074663027193E+05    -0.539717865293871E+05    -0.640648424154892E+02     0.482515319060001E+05     0.000000000000000E+00    -0.150073609680718E+05    -0.539718918640346E+05
     0.155100000000000E+02     0.327807692307692E+01    -0.151138131894674E+05    -0.510893573562410E+05     0.284895832587320E+03     0.454602934224354E+05     0.000000000000000E+00    -0.151115571972982E+05    -0.510916133484103E+05
     0.150400000000000E+02     0.351307692307692E+01    -0.151803736557994E+05    -0.482829011549691E+05     0.692812636422497E+03     0.427804835830464E+05     0.000000000000000E+00    -0.151658799202130E+05    -0.482973948905555E+05
     0.145700000000000E+02     0.374807692307692E+01    -0.151969864918469E+05    -0.455497802634567E+05     0.115274275540975E+04     0.402181294032016E+05     0.000000000000000E+00    -0.151532704248641E+05    -0.455934963304395E+05
     0.141000000000000E+02     0.398307692307692E+01    -0.151559541239480E+05    -0.428868115268867E+05     0.165688335579473E+04     0.377786551863635E+05     0.000000000000000E+00    -0.150573083652091E+05    -0.429854572856256E+05
     0.136300000000000E+02     0.421807692307692E+01    -0.150519426219170E+05    -0.402902591043591E+05     0.219670295594450E+04     0.354668267365274E+05     0.000000000000000E+00    -0.148621720010656E+05    -0.404800297252105E+05
     0.131600000000000E+02     0.445307692307692E+01    -0.148818817063148E+05    -0.377558272755099E+05     0.276307279854309E+04     0.332866167552493E+05     0.000000000000000E+00    -0.145528476166294E+05    -0.380848613651953E+05
     0.126900000000000E+02     0.468807692307692E+01    -0.146448647557188E+05    -0.352786532471310E+05     0.334639822278700E+04     0.312409903215772E+05     0.000000000000000E+00    -0.141157141950194E+05    -0.358078038078304E+05
     0.122200000000000E+02     0.492307692307692E+01    -0.143420488139933E+05    -0.328532999597884E+05     0.393675003658073E+04     0.293316220700170E+05     0.000000000000000E+00    -0.135396126652572E+05    -0.336557361085246E+05
     0.218500000000000E+02     0.185897435897436E+00    -0.183991547456976E+05    -0.948799246371310E+05     0.136064623474689E+04     0.871812632012950E+05     0.000000000000000E+00    -0.183749555570907E+05    -0.949041238257379E+05
     0.213750000000000E+02     0.423397435897436E+00    -0.170114093272462E+05    -0.909733707515504E+05     0.899771157146824E+03     0.837877422411531E+05     0.000000000000000E+00    -0.170004649398878E+05    -0.909843151389089E+05
     0.209000000000000E+02     0.660897435897436E+00    -0.159625864726614E+05    -0.871350573790580E+05     0.466408958115355E+03     0.803559214687010E+05     0.000000000000000E+00    -0.159595301227530E+05    -0.871381137289664E+05
     0.204250000000000E+02     0.898397435897436E+00    -0.152017922592266E+05    -0.833687728496890E+05     0.752124734311661E+02     0.769032442705545E+05     0.000000000000000E+00    -0.152017092731647E+05    -0.833688558357509E+05
     0.199500000000000E+02     0.113589743589744E+01    -0.146820220402952E+05    -0.796778205486702E+05    -0.261744925421627E+03     0.734471978524539E+05     0.000000000000000E+00    -0.146809679830096E+05    -0.796788746059558E+05
     0.194750000000000E+02     0.137339743589744E+01    -0.143600550194227E+05    -0.760650113321851E+05    -0.534830820906957E+03     0.700046963664873E+05     0.000000000000000E+00    -0.143554196945177E+05    -0.760696466570900E+05
     0.190000000000000E+02     0.161089743589744E+01    -0.141963488244991E+05    -0.725326559431381E+05    -0.736715239089828E+03     0.665916801200184E+05     0.000000000000000E+00    -0.141870465076879E+05    -0.725419582599492E+05
     0.185250000000000E+02     0.184839743589744E+01    -0.141549340818813E+05    -0.690825574269192E+05    -0.862232139289823E+03     0.632228849840487E+05     0.000000000000000E+00    -0.141414024358475E+05    -0.690960890729530E+05
     0.180500000000000E+02     0.208589743589744E+01    -0.142033089905257E+05    -0.657160035471690E+05    -0.908240903734234E+03     0.599117443336997E+05     0.000000000000000E+00    -0.141873004071741E+05    -0.657320121305206E+05
     0.175750000000000E+02     0.232339743589744E+01    -0.143123338961204E+05    -0.624337592015421E+05    -0.873487827211369E+03     0.566703919561228E+05     0.000000000000000E+00    -0.142964837887401E+05    -0.624496093089224E+05
     0.171000000000000E+02     0.256089743589744E+01    -0.144561258652177E+05    -0.592360588374730E+05    -0.758467606723838E+03     0.535097387271231E+05     0.000000000000000E+00    -0.144432828766306E+05    -0.592489018260601E+05
     0.166250000000000E+02     0.279839743589744E+01    -0.146119532593665E+05    -0.561225988679398E+05    -0.565284831141798E+03     0.504395988397414E+05     0.000000000000000E+00    -0.146042567347968E+05    -0.561302953925095E+05
     0.161500000000000E+02     0.303589743589744E+01    -0.147601303092445E+05    -0.530925300872291E+05    -0.297515470856250E+03     0.474688432726185E+05     0.000000000000000E+00    -0.147578212932592E+05    -0.530948391032145E+05
     0.156750000000000E+02     0.327339743589744E+01    -0.148839116887911E+05    -0.501444500867005E+05     0.399316325677116E+02     0.446055592778493E+05     0.000000000000000E+00    -0.148838664673252E+05    -0.501444953081664E+05
     0.152000000000000E+02     0.351089743589744E+01    -0.149693870893392E+05    -0.472763956705510E+05     0.440953276737611E+03     0.418571951977737E+05     0.000000000000000E+00    -0.149633697082220E+05    -0.472824130516682E+05
     0.147250000000000E+02     0.374839743589744E+01    -0.150053757937482E+05    -0.444858352715799E+05     0.898390408780310E+03     0.392306701797545E+05     0.000000000000000E+00    -0.149780235341577E+05    -0.445131875311704E+05
     0.142500000000000E+02     0.398589743589744E+01    -0.149833212505358E+05    -0.417696613669531E+05     0.140416663568879E+04     0.367324287713443E+05     0.000000000000000E+00    -0.149099146038473E+05    -0.418430680136416E+05
     0.137750000000000E+02     0.422339743589744E+01    -0.148971856480111E+05    -0.391241828939677E+05     0.194942673466882E+04     0.343684216285137E+05     0.000000000000000E+00    -0.147413275852157E+05    -0.392800409567630E+05
     0.133000000000000E+02     0.446089743589744E+01    -0.147433444884062E+05    -0.365451176658167E+05     0.252467516348569E+04     0.321439967465015E+05     0.000000000000000E+00    -0.144548024455442E+05    -0.368336597086786E+05
     0.128250000000000E+02     0.469839743589744E+01    -0.145204811620093E+05    -0.340275847873534E+05     0.311991457081099E+04     0.300636923302981E+05     0.000000000000000E+00    -0.140336404093723E+05    -0.345144255399904E+05
     0.123500000000000E+02     0.493589743589744E+01    -0.142294815212968E+05    -0.315660970708558E+05     0.372478430656930E+04     0.281309347173856E+05     0.000000000000000E+00    -0.134630885690385E+05    -0.323324900231141E+05
     0.220800000000000E+02     0.148717948717949E+00    -0.187168163982623E+05    -0.950660751999229E+05     0.162943600660708E+04     0.872726118543623E+05     0.000000000000000E+00    -0.186820570105977E+05    -0.951008345875875E+05
     0.216000000000000E+02     0.388717948717949E+00    -0.171721149119866E+05    -0.910623983036713E+05     0.111230867271868E+04     0.838285132832823E+05     0.000000000000000E+00    -0.171553745465854E+05    -0.910791386690724E+05
     0.211200000000000E+02     0.628717948717949E+00    -0.159962575253847E+05    -0.871273249448130E+05     0.622742645927225E+03     0.803399234798710E+05     0.000000000000000E+00    -0.159908059175698E+05    -0.871327765526280E+05
     0.206400000000000E+02     0.868717948717948E+00    -0.151348034659049E+05    -0.832651131325340E+05     0.176475873403636E+03     0.768246942675315E+05     0.000000000000000E+00    -0.151343463488730E+05    -0.832655702495659E+05
     0.201600000000000E+02     0.110871794871795E+01    -0.145374378057887E+05    -0.794795090151905E+05    -0.213482738980326E+03     0.733010078835857E+05     0.000000000000000E+00    -0.145367360359419E+05    -0.794802107850373E+05
     0.196800000000000E+02     0.134871794871795E+01    -0.141578603694229E+05    -0.757737388884114E+05    -0.536707371188832E+03     0.697866367216880E+05     0.000000000000000E+00    -0.141531857148239E+05    -0.757784135430105E+05
     0.192000000000000E+02     0.158871794871795E+01    -0.139536746406901E+05    -0.721505012031994E+05    -0.785209333558991E+03     0.662984532398115E+05     0.000000000000000E+00    -0.139430822847849E+05    -0.721610935591046E+05
     0.187200000000000E+02     0.182871794871795E+01    -0.138862766703200E+05    -0.686119585740332E+05    -0.953291111337724E+03     0.628521375237694E+05     0.000000000000000E+00    -0.138696759021641E+05    -0.686285593421890E+05
     0.182400000000000E+02     0.206871794871795E+01    -0.139207439832399E+05    -0.651597297869690E+05    -0.103740040921871E+04     0.594620398355402E+05     0.000000000000000E+00    -0.138997490551560E+05    -0.651807247150529E+05
     0.177600000000000E+02     0.230871794871795E+01    -0.140257244859268E+05    -0.617948818077426E+05    -0.103598419587929E+04     0.561411628653569E+05     0.000000000000000E+00    -0.140032673401269E+05    -0.618173389535425E+05
     0.172800000000000E+02     0.254871794871795E+01    -0.141733253737573E+05    -0.585179217898708E+05    -0.949342748517386E+03     0.529012337473748E+05     0.000000000000000E+00    -0.141530108586317E+05    -0.585382363049965E+05
     0.168000000000000E+02     0.278871794871795E+01    -0.143390020383595E+05    -0.553287890827533E+05    -0.779483697388406E+03     0.497528395761066E+05     0.000000000000000E+00    -0.143241843163511E+05    -0.553436068047617E+05
     0.163200000000000E+02     0.302871794871795E+01    -0.145014469749635E+05    -0.522268472397746E+05    -0.529976070342177E+03     0.467056025007999E+05     0.000000000000000E+00    -0.144940032043622E+05    -0.522342910103759E+05
     0.158400000000000E+02     0.326871794871795E+01    -0.146424786897528E+05    -0.492108760264055E+05    -0.205804337359861E+03     0.437683717337215E+05     0.000000000000000E+00    -0.146412534688177E+05    -0.492121012473406E+05
     0.153600000000000E+02     0.350871794871795E+01    -0.147469306072151E+05    -0.462790634283052E+05     0.186777544909141E+03     0.409494101879971E+05     0.000000000000000E+00    -0.147458242872736E+05    -0.462801697482467E+05
     0.148800000000000E+02     0.374871794871795E+01    -0.148025399774935E+05    -0.434289976594229E+05     0.640392088610257E+03     0.382565531580256E+05     0.000000000000000E+00    -0.147882211608520E+05    -0.434433164760644E+05
     0.144000000000000E+02     0.398871794871795E+01    -0.147998367837375E+05    -0.406576591700993E+05     0.114668423014683E+04     0.356973157598989E+05     0.000000000000000E+00    -0.147490858332097E+05    -0.407084101206271E+05
     0.139200000000000E+02     0.422871794871795E+01    -0.147320326494541E+05    -0.379614126551687E+05     0.169646728564321E+04     0.332789253110585E+05     0.000000000000000E+00    -0.146087916117178E+05    -0.380846536929050E+05
     0.134400000000000E+02     0.446871794871795E+01    -0.145949097458586E+05    -0.353359990620609E+05     0.227986890640784E+04     0.310082555104995E+05     0.000000000000000E+00    -0.143472625269933E+05    -0.355836462809262E+05
     0.129600000000000E+02     0.470871794871795E+01    -0.143867096992260E+05    -0.327765275989027E+05     0.288647703439633E+04     0.288916430634819E+05     0.000000000000000E+00    -0.139442901672747E+05    -0.332189471308541E+05
     0.124800000000000E+02     0.494871794871795E+01    -0.141080224982420E+05    -0.302774677426194E+05     0.350548585767451E+04     0.269345771993670E+05     0.000000000000000E+00    -0.133807549379528E+05    -0.310047353029086E+05
     0.223100000000000E+02     0.111538461538461E+00    -0.190821023462359E+05    -0.952930726787577E+05     0.193443358030515E+04     0.873941088666605E+05     0.000000000000000E+00    -0.190330329608742E+05    -0.953421420641193E+05
     0.218250000000000E+02     0.354038461538461E+00    -0.173686600907895E+05    -0.911906438781332E+05     0.135790259564748E+04     0.838992031288508E+05     0.000000000000000E+00    -0.173436908891551E+05    -0.912156130797676E+05
     0.213400000000000E+02     0.596538461538461E+00    -0.160557613715337E+05    -0.871569857571299E+05     0.808878252977261E+03     0.803537100972566E+05     0.000000000000000E+00    -0.160465604136575E+05    -0.871661867150061E+05
     0.208550000000000E+02     0.839038461538461E+00    -0.150852347246055E+05    -0.831968556846703E+05     0.304242558322320E+03     0.767757428929398E+05     0.000000000000000E+00    -0.150838757540482E+05    -0.831982146552276E+05
     0.203700000000000E+02     0.108153846153846E+01    -0.144032823230749E+05    -0.793144710718876E+05    -0.142007924537561E+03     0.731840941919051E+05     0.000000000000000E+00    -0.144029716500692E+05    -0.793147817448933E+05
     0.198850000000000E+02     0.132403846153846E+01    -0.139603629764150E+05    -0.755135009552199E+05    -0.518608356730522E+03     0.695973529803795E+05     0.000000000000000E+00    -0.139559938159313E+05    -0.755178701157037E+05
     0.194000000000000E+02     0.156653846153846E+01    -0.137110751299719E+05    -0.717970575795052E+05    -0.816871906952285E+03     0.660333101309340E+05     0.000000000000000E+00    -0.136995896085598E+05    -0.718085431009173E+05
     0.189150000000000E+02     0.180903846153846E+01    -0.136140398644350E+05    -0.681676879810756E+05    -0.103053603412604E+04     0.625085926735506E+05     0.000000000000000E+00    -0.135945796476714E+05    -0.681871481978392E+05
     0.184300000000000E+02     0.205153846153846E+01    -0.136317838953070E+05    -0.646273655708515E+05    -0.115560877006205E+04     0.590384783552245E+05     0.000000000000000E+00    -0.136056101265330E+05    -0.646535393396255E+05
     0.179450000000000E+02     0.229403846153846E+01    -0.137306225723744E+05    -0.611774817174367E+05    -0.119021500211750E+04     0.556368510016126E+05     0.000000000000000E+00    -0.137007845289730E+05    -0.612073197608381E+05
     0.174600000000000E+02     0.253653846153846E+01    -0.138805428791770E+05    -0.578188373302123E+05    -0.113444275585619E+04     0.523162637346265E+05     0.000000000000000E+00    -0.138512722028821E+05    -0.578481080065072E+05
     0.169750000000000E+02     0.277903846153846E+01    -0.140550864324785E+05    -0.545516344424319E+05    -0.990189477708329E+03     0.490880816843468E+05     0.000000000000000E+00    -0.140308895623404E+05    -0.545758313125701E+05
     0.164900000000000E+02     0.302153846153846E+01    -0.142312324817367E+05    -0.513754677943154E+05    -0.761008317630262E+03     0.459626788163354E+05     0.000000000000000E+00    -0.142156475393035E+05    -0.513910527367486E+05
     0.160050000000000E+02     0.326403846153846E+01    -0.143892809085731E+05    -0.482893164161438E+05    -0.451954411764233E+03     0.429496651276858E+05     0.000000000000000E+00    -0.143832565344339E+05    -0.482953407902829E+05
     0.155200000000000E+02     0.350653846153846E+01    -0.145127352262437E+05    -0.452915352113539E+05    -0.694311650981255E+02     0.400581208882288E+05     0.000000000000000E+00    -0.145125786034333E+05    -0.452916918341643E+05
     0.150350000000000E+02     0.374903846153846E+01    -0.145881855791086E+05    -0.423798465396324E+05     0.378963465874770E+03     0.372968138720241E+05     0.000000000000000E+00    -0.145830190431618E+05    -0.423850130755793E+05
     0.145500000000000E+02     0.399153846153846E+01    -0.146051917421023E+05    -0.395513318000108E+05     0.884590690496025E+03     0.346743736850803E+05     0.000000000000000E+00    -0.145738634793790E+05    -0.395826600627341E+05
     0.140650000000000E+02     0.423403846153846E+01    -0.145561661202040E+05    -0.368024230139595E+05     0.143792460128230E+04     0.321993945638283E+05     0.000000000000000E+00    -0.144636085156307E+05    -0.368949806185328E+05
     0.135800000000000E+02     0.447653846153846E+01    -0.144362567479073E+05    -0.341288944084826E+05     0.202870589126562E+04     0.298804351208872E+05     0.000000000000000E+00    -0.142294346709495E+05    -0.343357164854405E+05
     0.130950000000000E+02     0.471903846153846E+01    -0.142432302886910E+05    -0.315258539992123E+05     0.264609557133357E+04     0.277258822437772E+05     0.000000000000000E+00    -0.138471701613176E+05    -0.319219141265857E+05
     0.126100000000000E+02     0.496153846153846E+01    -0.139773550344886E+05    -0.289877351735034E+05     0.327882868756960E+04     0.257436503000411E+05     0.000000000000000E+00    -0.132923927524300E+05    -0.296726974555620E+05
     0.225400000000000E+02     0.743589743589745E-01    -0.194979436056108E+05    -0.955617629973069E+05     0.227732989658295E+04     0.875472511310345E+05     0.000000000000000E+00    -0.194298219816422E+05    -0.956298846212756E+05
     0.220500000000000E+02     0.319358974358974E+00    -0.176034314776551E+05    -0.913589992911456E+05     0.163815049537250E+04     0.840009897472387E+05     0.000000000000000E+00    -0.175670652124393E+05    -0.913953655563614E+05
     0.215600000000000E+02     0.564358974358975E+00    -0.161430118469284E+05    -0.872249638279940E+05     0.102631221368230E+04     0.803982429667563E+05     0.000000000000000E+00    -0.161281965915954E+05    -0.872397790833269E+05
     0.210700000000000E+02     0.809358974358974E+00    -0.150545919202948E+05    -0.831649442108258E+05     0.459902332406913E+03     0.767572075884367E+05     0.000000000000000E+00    -0.150514866579435E+05    -0.831680494731770E+05
     0.205800000000000E+02     0.105435897435897E+01    -0.142807119476840E+05    -0.791836587685201E+05    -0.460407645447135E+02     0.730971811161088E+05     0.000000000000000E+00    -0.142806792873652E+05    -0.791836914288389E+05
     0.200900000000000E+02     0.129935897435897E+01    -0.137684220649687E+05    -0.752852476960574E+05    -0.479365784268944E+03     0.694375134630855E+05     0.000000000000000E+00    -0.137646868656788E+05    -0.752889828953473E+05
     0.196000000000000E+02     0.154435897435897E+01    -0.134691591368407E+05    -0.714732641947135E+05    -0.830646718887449E+03     0.657968912255557E+05     0.000000000000000E+00    -0.134572663142261E+05    -0.714851570173281E+05
     0.191100000000000E+02     0.178935897435897E+01    -0.133386235996882E+05    -0.677506656122559E+05    -0.109302103956703E+04     0.621928856718071E+05     0.000000000000000E+00    -0.133166760077220E+05    -0.677726132042222E+05
     0.186200000000000E+02     0.203435897435897E+01    -0.133366563044728E+05    -0.641198045831379E+05    -0.126202789053964E+04     0.586417094593742E+05     0.000000000000000E+00    -0.133053126004554E+05    -0.641511482871553E+05
     0.181300000000000E+02     0.227935897435897E+01    -0.134271153596056E+05    -0.605824201686941E+05    -0.133544628312208E+04     0.551581378069683E+05     0.000000000000000E+00    -0.133893255772118E+05    -0.606202099510879E+05
     0.176400000000000E+02     0.252435897435897E+01    -0.135777529738248E+05    -0.571396289973355E+05    -0.131313328973613E+04     0.517555578400946E+05     0.000000000000000E+00    -0.135382056631007E+05    -0.571791763080596E+05
     0.171500000000000E+02     0.276935897435897E+01    -0.137600922990720E+05    -0.537919164047446E+05    -0.119686223792822E+04     0.484461155672000E+05     0.000000000000000E+00    -0.137243407171009E+05    -0.538276679867157E+05
     0.166600000000000E+02     0.301435897435897E+01    -0.139493042733690E+05    -0.505391275740705E+05    -0.990160904389488E+03     0.452409338240009E+05     0.000000000000000E+00    -0.139225290223801E+05    -0.505659028250594E+05
     0.161700000000000E+02     0.325935897435897E+01    -0.141240844636951E+05    -0.473804586761239E+05    -0.698149708975568E+03     0.421503768082293E+05     0.000000000000000E+00    -0.141094346886739E+05    -0.473951084511451E+05
     0.156800000000000E+02     0.350435897435897E+01    -0.142665299088635E+05    -0.443144480095722E+05    -0.327379908726542E+03     0.391843375971082E+05     0.000000000000000E+00    -0.142629634426412E+05    -0.443180144757945E+05
     0.151900000000000E+02     0.374935897435897E+01    -0.143620159623980E+05    -0.413389671411349E+05     0.114328208113197E+03     0.363525241718851E+05     0.000000000000000E+00    -0.143615314486244E+05    -0.413394516549086E+05
     0.147000000000000E+02     0.399435897435897E+01    -0.143990731354103E+05    -0.384512120457784E+05     0.618047128075033E+03     0.336647166528035E+05     0.000000000000000E+00    -0.143832021824445E+05    -0.384670829987443E+05
     0.142100000000000E+02     0.423935897435897E+01    -0.143692639394764E+05    -0.356476942469111E+05     0.117390391844624E+04     0.311309632848906E+05     0.000000000000000E+00    -0.143046970748213E+05    -0.357122611115662E+05
     0.137200000000000E+02     0.448435897435897E+01    -0.142670597295135E+05    -0.329242319565787E+05     0.177124203325010E+04     0.287616750973287E+05     0.000000000000000E+00    -0.141003934915841E+05    -0.330908981945082E+05
     0.132300000000000E+02     0.472935897435897E+01    -0.140897175466571E+05    -0.302759412156591E+05     0.239878311922597E+04     0.265675700471466E+05     0.000000000000000E+00    -0.137417027016903E+05    -0.306239560606260E+05
     0.127400000000000E+02     0.497435897435897E+01    -0.138371569611373E+05    -0.276972270340576E+05     0.304478882180946E+04     0.245594103592293E+05     0.000000000000000E+00    -0.131977716382846E+05    -0.283366123569104E+05
     0.227700000000000E+02     0.371794871794870E-01    -0.199673609099037E+05    -0.958729771524317E+05     0.265985096291306E+04     0.877337867352266E+05     0.000000000000000E+00    -0.198742697589151E+05    -0.959660683034204E+05
     0.222750000000000E+02     0.284679487179487E+00    -0.178788907821770E+05    -0.915683450502640E+05     0.195468387074202E+04     0.841352392145554E+05     0.000000000000000E+00    -0.178270773383199E+05    -0.916201584941210E+05
     0.217800000000000E+02     0.532179487179487E+00    -0.162599850530863E+05    -0.873321750468863E+05     0.127657347827316E+04     0.804746231489591E+05     0.000000000000000E+00    -0.162370630855913E+05    -0.873550970143813E+05
     0.212850000000000E+02     0.779679487179487E+00    -0.150444320045093E+05    -0.831703170765751E+05     0.644875881638693E+03     0.767700071096290E+05     0.000000000000000E+00    -0.150383281917552E+05    -0.831764208893292E+05
     0.207900000000000E+02     0.102717948717949E+01    -0.141709243809782E+05    -0.790880212246335E+05     0.757275365314664E+02     0.730410640311556E+05     0.000000000000000E+00    -0.141708360428937E+05    -0.790881095627180E+05
     0.202950000000000E+02     0.127467948717949E+01    -0.135829298194796E+05    -0.750899284062358E+05    -0.417784510202133E+03     0.693078331397958E+05     0.000000000000000E+00    -0.135800921611859E+05    -0.750927660645295E+05
     0.198000000000000E+02     0.152217948717949E+01    -0.132285612792541E+05    -0.711800610452716E+05    -0.825452388969277E+03     0.655898638470039E+05     0.000000000000000E+00    -0.132168060449000E+05    -0.711918162796257E+05
     0.193050000000000E+02     0.176967948717949E+01    -0.130604474715959E+05    -0.673618137531907E+05    -0.113977717583782E+04     0.619056627958588E+05     0.000000000000000E+00    -0.130365342580307E+05    -0.673857269667560E+05
     0.188100000000000E+02     0.201717948717949E+01    -0.130356032896527E+05    -0.636379440078476E+05    -0.135579866094331E+04     0.582723815236924E+05     0.000000000000000E+00    -0.129993031445919E+05    -0.636742441529084E+05
     0.183150000000000E+02     0.226467948717949E+01    -0.131153002382250E+05    -0.600105628323459E+05    -0.147092511689623E+04     0.547056949949563E+05     0.000000000000000E+00    -0.130692082428312E+05    -0.600566548277397E+05
     0.178200000000000E+02     0.251217948717949E+01    -0.132649368635660E+05    -0.564811254738825E+05    -0.148476306718896E+04     0.512198309787695E+05     0.000000000000000E+00    -0.132139854633774E+05    -0.565320768740710E+05
     0.173250000000000E+02     0.275967948717949E+01    -0.134539091831813E+05    -0.530504220825928E+05    -0.139894705460296E+04     0.478277174158107E+05     0.000000000000000E+00    -0.134045458433532E+05    -0.530997854224209E+05
     0.168300000000000E+02     0.300717948717949E+01    -0.136554811156286E+05    -0.497185683903945E+05    -0.121696940961586E+04     0.445412200009197E+05     0.000000000000000E+00    -0.136144604498811E+05    -0.497595890561421E+05
     0.163350000000000E+02     0.325467948717949E+01    -0.138466549103172E+05    -0.464849963898326E+05    -0.944010018808494E+03     0.413714455004614E+05     0.000000000000000E+00    -0.138193737858636E+05    -0.465122775142862E+05
     0.158400000000000E+02     0.350217948717949E+01    -0.140080415773076E+05    -0.433484450129237E+05    -0.586766093272082E+03     0.383290878728157E+05     0.000000000000000E+00    -0.139963117842622E+05    -0.433601748059691E+05
     0.153450000000000E+02     0.374967948717949E+01    -0.141237313171115E+05    -0.403069508100005E+05    -0.153281937015285E+03     0.354247937541198E+05     0.000000000000000E+00    -0.141228340039659E+05    -0.403078481231461E+05
     0.148500000000000E+02     0.399717948717949E+01    -0.141811639504913E+05    -0.373578386285563E+05     0.347221284628688E+03     0.326695205263547E+05     0.000000000000000E+00    -0.141759632228371E+05    -0.373630393562105E+05
     0.143550000000000E+02     0.424467948717949E+01    -0.141709993482597E+05    -0.344977122920896E+05     0.904515776594968E+03     0.300748526825792E+05     0.000000000000000E+00    -0.141308288042196E+05    -0.345378828361297E+05
     0.138600000000000E+02     0.449217948717949E+01    -0.140869878610794E+05    -0.317224452789484E+05     0.150753734567996E+04     0.276532288612312E+05     0.000000000000000E+00    -0.139590467553501E+05    -0.318503863846777E+05
     0.133650000000000E+02     0.473967948717949E+01    -0.139258407492628E+05    -0.290271714011751E+05     0.214455563213421E+04     0.254180115345529E+05     0.000000000000000E+00    -0.136271961868329E+05    -0.293258159636050E+05
     0.128700000000000E+02     0.498717948717949E+01    -0.136871006125718E+05    -0.264062754833506E+05     0.280334434125532E+04     0.233833055239054E+05     0.000000000000000E+00    -0.130966454693858E+05    -0.269967306265366E+05
     0.230000000000000E+02    -0.444089209850063E-15    -0.204934658730268E+05    -0.962275307825745E+05     0.308375810924494E+04     0.879557439744040E+05     0.000000000000000E+00    -0.203681081554618E+05    -0.963528885001395E+05
     0.225000000000000E+02     0.250000000000000E+00    -0.181975757939125E+05    -0.918195499814451E+05     0.230916840815110E+04     0.843035294612960E+05     0.000000000000000E+00    -0.181252193630656E+05    -0.918919064122921E+05
     0.220000000000000E+02     0.500000000000000E+00    -0.164087201842953E+05    -0.874795268609010E+05     0.156122376912238E+04     0.805841107089378E+05     0.000000000000000E+00    -0.163744410658607E+05    -0.875138059793356E+05
     0.215000000000000E+02     0.750000000000000E+00    -0.150563636844830E+05    -0.832139070362563E+05     0.860615024742183E+03     0.768151777863980E+05     0.000000000000000E+00    -0.150454985603387E+05    -0.832247721604006E+05
     0.210000000000000E+02     0.100000000000000E+01    -0.140751592389269E+05    -0.790285044003369E+05     0.224635094916271E+03     0.730166228627690E+05     0.000000000000000E+00    -0.140743823686639E+05    -0.790292812705999E+05
     0.205000000000000E+02     0.125000000000000E+01    -0.134048118485284E+05    -0.749284913219524E+05    -0.332642008528275E+03     0.692090847817755E+05     0.000000000000000E+00    -0.134030133951142E+05    -0.749302897753666E+05
     0.200000000000000E+02     0.150000000000000E+01    -0.129899423229460E+05    -0.709183888443685E+05    -0.800182177243380E+03     0.654129312266332E+05     0.000000000000000E+00    -0.129788912861962E+05    -0.709294398811183E+05
     0.195000000000000E+02     0.175000000000000E+01    -0.127799510329028E+05    -0.670020568837793E+05    -0.116981220176072E+04     0.616475883611377E+05     0.000000000000000E+00    -0.127547247124071E+05    -0.670272832042749E+05
     0.190000000000000E+02     0.200000000000000E+01    -0.127288816624930E+05    -0.631826844277784E+05    -0.143604076689232E+04     0.579311467686484E+05     0.000000000000000E+00    -0.126880414275365E+05    -0.632235246627349E+05
     0.185000000000000E+02     0.225000000000000E+01    -0.127952849614894E+05    -0.594627797338324E+05    -0.159587944713112E+04     0.542801876678098E+05     0.000000000000000E+00    -0.127407746465955E+05    -0.595172900487262E+05
     0.180000000000000E+02     0.250000000000000E+01    -0.129420824976498E+05    -0.558441605277519E+05    -0.164866370205165E+04     0.507097851294060E+05     0.000000000000000E+00    -0.128788200639504E+05    -0.559074229614513E+05
     0.175000000000000E+02     0.275000000000000E+01    -0.131364304090248E+05    -0.523279442021643E+05    -0.159587387171064E+04     0.472336489284930E+05     0.000000000000000E+00    -0.130715540054216E+05    -0.523928206057675E+05
     0.170000000000000E+02     0.300000000000000E+01    -0.133495831562645E+05    -0.489145380149855E+05    -0.144095617204757E+04     0.438643792952033E+05     0.000000000000000E+00    -0.132912966385436E+05    -0.489728245327064E+05
     0.165000000000000E+02     0.325000000000000E+01    -0.135567572749252E+05    -0.456036292878924E+05    -0.118914369028537E+04     0.406138095612264E+05     0.000000000000000E+00    -0.135126930349479E+05    -0.456476935278697E+05
     0.160000000000000E+02     0.350000000000000E+01    -0.137369951277769E+05    -0.423941756047945E+05    -0.847277380330993E+03     0.374934156019320E+05     0.000000000000000E+00    -0.137119664086043E+05    -0.424192043239671E+05
     0.155000000000000E+02     0.375000000000000E+01    -0.138730286571103E+05    -0.392843950103064E+05    -0.423627058176020E+03     0.345147715818144E+05     0.000000000000000E+00    -0.138659684292144E+05    -0.392914552382023E+05
     0.150000000000000E+02     0.400000000000000E+01    -0.139511431370436E+05    -0.362717562082199E+05     0.722876027026929E+02     0.316900285114815E+05     0.000000000000000E+00    -0.139509090286577E+05    -0.362719903166058E+05
     0.145000000000000E+02     0.425000000000000E+01    -0.139610409258296E+05    -0.333529687599759E+05     0.629876075942437E+03     0.290323829299941E+05     0.000000000000000E+00    -0.139406032377699E+05    -0.333734064480357E+05
     0.140000000000000E+02     0.450000000000000E+01    -0.138957052181630E+05    -0.305239732831369E+05     0.123765598689400E+04     0.265564834022855E+05     0.000000000000000E+00    -0.138040902030010E+05    -0.306155882982989E+05
     0.135000000000000E+02     0.475000000000000E+01    -0.137512637974870E+05    -0.277799316498583E+05     0.188343211722104E+04     0.242786869440268E+05     0.000000000000000E+00    -0.135028023273932E+05    -0.280283931199522E+05
     0.130000000000000E+02     0.500000000000000E+01    -0.135268527883008E+05    -0.251152171853617E+05     0.255447540949954E+04     0.222170220521309E+05     0.000000000000000E+00    -0.129887453560969E+05    -0.256533246175656E+05
 zone I=   21 ,j=   21 ,f=point, T="    1"
     0.000000000000000E+00     0.371794871794872E+01    -0.141516720677080E+05    -0.115684703061145E+06     0.355782077278631E-09     0.109298162672964E+06     0.000000000000000E+00    -0.141516720677080E+05    -0.115684703061145E+06
     0.000000000000000E+00     0.396923076923077E+01    -0.133251295344113E+05    -0.110099407454869E+06     0.360938354429056E-09     0.104078574803002E+06     0.000000000000000E+00    -0.133251295344113E+05    -0.110099407454869E+06
     0.000000000000000E+00     0.422051282051282E+01    -0.125729060348012E+05    -0.104521240593153E+06     0.361502265599829E-09     0.988363898808180E+05     0.000000000000000E+00    -0.125729060348012E+05    -0.104521240593153E+06
     0.000000000000000E+00     0.447179487179487E+01    -0.118913650921186E+05    -0.989507955644506E+05     0.357668382844908E-09     0.935735244093076E+05     0.000000000000000E+00    -0.118913650921186E+05    -0.989507955644506E+05
     0.000000000000000E+00     0.472307692307692E+01    -0.112762917807215E+05    -0.933885813581077E+05     0.349674646893494E-09     0.882921570244050E+05     0.000000000000000E+00    -0.112762917807215E+05    -0.933885813581077E+05
     0.000000000000000E+00     0.497435897435897E+01    -0.107231306112747E+05    -0.878350173951460E+05     0.337800275423680E-09     0.829946350503472E+05     0.000000000000000E+00    -0.107231306112747E+05    -0.878350173951460E+05
     0.000000000000000E+00     0.522564102564102E+01    -0.102272234159398E+05    -0.822904280590546E+05     0.322363671336095E-09     0.776833833981805E+05     0.000000000000000E+00    -0.102272234159398E+05    -0.822904280590546E+05
     0.000000000000000E+00     0.547692307692308E+01    -0.978404723356554E+04    -0.767550372265771E+05     0.303720331027561E-09     0.723608209619195E+05     0.000000000000000E+00    -0.978404723356554E+04    -0.767550372265771E+05
     0.000000000000000E+00     0.572820512820513E+01    -0.938945219487729E+04    -0.712289627985002E+05     0.282260752664730E-09     0.670292921996257E+05     0.000000000000000E+00    -0.938945219487729E+04    -0.712289627985002E+05
     0.000000000000000E+00     0.597948717948718E+01    -0.903989940766740E+04    -0.657122112304424E+05     0.258408344457742E-09     0.616910261441357E+05     0.000000000000000E+00    -0.903989940766740E+04    -0.657122112304424E+05
     0.000000000000000E+00     0.623076923076923E+01    -0.873269884198504E+04    -0.602046720636419E+05     0.232617332933864E-09     0.563481436903046E+05     0.000000000000000E+00    -0.873269884198504E+04    -0.602046720636419E+05
     0.000000000000000E+00     0.648205128205128E+01    -0.846624721532620E+04    -0.547061124557449E+05     0.205370671211145E-09     0.510027510012142E+05     0.000000000000000E+00    -0.846624721532619E+04    -0.547061124557449E+05
     0.000000000000000E+00     0.673333333333333E+01    -0.824026587782361E+04    -0.492161717115947E+05     0.177177947272063E-09     0.456571921967420E+05     0.000000000000000E+00    -0.824026587782361E+04    -0.492161717115947E+05
     0.000000000000000E+00     0.698461538461538E+01    -0.805603869743686E+04    -0.437343558140192E+05     0.148573292237169E-09     0.403146124267197E+05     0.000000000000000E+00    -0.805603869743686E+04    -0.437343558140192E+05
     0.000000000000000E+00     0.723589743589744E+01    -0.791664994514222E+04    -0.382600319546199E+05     0.120113288638738E-09     0.349801674045133E+05     0.000000000000000E+00    -0.791664994514222E+04    -0.382600319546199E+05
     0.000000000000000E+00     0.748717948717949E+01    -0.782722218012274E+04    -0.327924230645596E+05     0.923748786944172E-10     0.296636955949723E+05     0.000000000000000E+00    -0.782722218012274E+04    -0.327924230645596E+05
     0.000000000000000E+00     0.773846153846154E+01    -0.779515413495820E+04    -0.273306023453517E+05     0.659532725808742E-10     0.243860614832374E+05     0.000000000000000E+00    -0.779515413495820E+04    -0.273306023453517E+05
     0.000000000000000E+00     0.798974358974359E+01    -0.783035860081504E+04    -0.218734877996477E+05     0.414598567074437E-10     0.191960082052728E+05     0.000000000000000E+00    -0.783035860081504E+04    -0.218734877996477E+05
     0.000000000000000E+00     0.824102564102564E+01    -0.794550031263643E+04    -0.164198367620258E+05     0.195201019897758E-10     0.142224539508330E+05     0.000000000000000E+00    -0.794550031263643E+04    -0.164198367620258E+05
     0.000000000000000E+00     0.849230769230769E+01    -0.815623383433217E+04    -0.109682404297796E+05     0.771472123485041E-12     0.986746749623723E+04     0.000000000000000E+00    -0.815623383433217E+04    -0.109682404297796E+05
     0.000000000000000E+00     0.874358974358974E+01    -0.848144144396871E+04    -0.551711839370622E+04    -0.141386681422022E-10     0.745522150857904E+04     0.000000000000000E+00    -0.551711839370622E+04    -0.848144144396871E+04
     0.520000000000000E+00     0.376923076923077E+01    -0.139909324381872E+05    -0.114430656041857E+06     0.667060077528300E+03     0.108122451704360E+06     0.000000000000000E+00    -0.139865024227906E+05    -0.114435086057254E+06
     0.500000000000000E+00     0.401794871794872E+01    -0.131879363399597E+05    -0.108910887877354E+06     0.655114066420190E+03     0.102958636502264E+06     0.000000000000000E+00    -0.131834530438099E+05    -0.108915371173503E+06
     0.480000000000000E+00     0.426666666666667E+01    -0.124568137957944E+05    -0.103398063482127E+06     0.643226982821617E+03     0.977730154030689E+05     0.000000000000000E+00    -0.124522644822914E+05    -0.103402612795630E+06
     0.460000000000000E+00     0.451538461538462E+01    -0.117939526729129E+05    -0.978927365072363E+05     0.631108369435634E+03     0.925674768612591E+05     0.000000000000000E+00    -0.117893268656931E+05    -0.978973623144561E+05
     0.440000000000000E+00     0.476410256410256E+01    -0.111952276406254E+05    -0.923953791582655E+05     0.618483923600177E+03     0.873441439147333E+05     0.000000000000000E+00    -0.111905170561376E+05    -0.924000897427533E+05
     0.420000000000000E+00     0.501282051282051E+01    -0.106562258273375E+05    -0.869063768776927E+05     0.605097596131956E+03     0.821052857150435E+05     0.000000000000000E+00    -0.106514242624779E+05    -0.869111784425523E+05
     0.400000000000000E+00     0.526153846153846E+01    -0.101724724775570E+05    -0.814260230272609E+05     0.590713690170347E+03     0.768532320213809E+05     0.000000000000000E+00    -0.101675756172346E+05    -0.814309198875832E+05
     0.380000000000000E+00     0.551025641025641E+01    -0.973965660890019E+04    -0.759545135703467E+05     0.575118960021287E+03     0.715902957666092E+05     0.000000000000000E+00    -0.973466170467046E+04    -0.759595084745764E+05
     0.360000000000000E+00     0.575897435897436E+01    -0.935385666909884E+04    -0.704919417543310E+05     0.558124710001164E+03     0.663187113638474E+05     0.000000000000000E+00    -0.934876201760615E+04    -0.704970364058237E+05
     0.340000000000000E+00     0.600769230769231E+01    -0.901176619300653E+04    -0.650382927929685E+05     0.539568893280712E+03     0.610406010362822E+05     0.000000000000000E+00    -0.900657030436229E+04    -0.650434886816128E+05
     0.320000000000000E+00     0.625641025641026E+01    -0.871091945960540E+04    -0.595934385487577E+05     0.519318210728904E+03     0.557579901591610E+05     0.000000000000000E+00    -0.870561973542221E+04    -0.595987382729409E+05
     0.300000000000000E+00     0.650512820512821E+01    -0.844991714901276E+04    -0.541571322153102E+05     0.497270209756842E+03     0.504729097868233E+05     0.000000000000000E+00    -0.844450775359031E+04    -0.541625416107326E+05
     0.280000000000000E+00     0.675384615384615E+01    -0.822865199948771E+04    -0.487290029997213E+05     0.473355383161652E+03     0.451876602079055E+05     0.000000000000000E+00    -0.822312032596333E+04    -0.487345346732457E+05
     0.260000000000000E+00     0.700256410256410E+01    -0.804853446443774E+04    -0.433085508049393E+05     0.447539267970377E+03     0.399053879855838E+05     0.000000000000000E+00    -0.804285496792927E+04    -0.433142303014478E+05
     0.240000000000000E+00     0.725128205128205E+01    -0.791271836942541E+04    -0.378951409121358E+05     0.419824544283867E+03     0.346313152664030E+05     0.000000000000000E+00    -0.790684098896588E+04    -0.379010182925953E+05
     0.220000000000000E+00     0.750000000000000E+01    -0.782632656917491E+04    -0.324879986630747E+05     0.390253134120676E+03     0.293754429772429E+05     0.000000000000000E+00    -0.782015264103563E+04    -0.324941725912140E+05
     0.200000000000000E+00     0.774871794871795E+01    -0.779667660457869E+04    -0.270862041424830E+05     0.358908300260950E+03     0.241589464233045E+05     0.000000000000000E+00    -0.779000093027222E+04    -0.270928798167895E+05
     0.180000000000000E+00     0.799743589743590E+01    -0.783350635970415E+04    -0.216886868604200E+05     0.325916745090325E+03     0.190311102759754E+05     0.000000000000000E+00    -0.782584402622747E+04    -0.216963491938966E+05
     0.160000000000000E+00     0.824615384615385E+01    -0.794919971880016E+04    -0.162942204346472E+05     0.291450709443814E+03     0.141216222082729E+05     0.000000000000000E+00    -0.793903315840757E+04    -0.163043869950398E+05
     0.140000000000000E+00     0.849487179487179E+01    -0.815901222330379E+04    -0.109014172729985E+05     0.255730071449705E+03     0.983167207786403E+04     0.000000000000000E+00    -0.813536915325849E+04    -0.109250603430438E+05
     0.120000000000000E+00     0.874358974358974E+01    -0.848129672884683E+04    -0.550872325574973E+04     0.219024445373450E+03     0.746332531148728E+04     0.000000000000000E+00    -0.549267182433766E+04    -0.849734816025890E+04
     0.104000000000000E+01     0.382051282051282E+01    -0.138626494816929E+05    -0.112948758506221E+06     0.133352478948609E+04     0.106720011784469E+06     0.000000000000000E+00    -0.138447058324052E+05    -0.112966702155509E+06
     0.100000000000000E+01     0.406666666666667E+01    -0.130829685091522E+05    -0.107508945395656E+06     0.131015563197917E+04     0.101626525973164E+06     0.000000000000000E+00    -0.130647936645637E+05    -0.107527120240245E+06
     0.960000000000000E+00     0.431282051282051E+01    -0.123721607529867E+05    -0.102075564048933E+06     0.128675596988089E+04     0.965119840901552E+05     0.000000000000000E+00    -0.123537065995275E+05    -0.102094018202392E+06
     0.920000000000000E+00     0.455897435897436E+01    -0.117267261690091E+05    -0.966491171286973E+05     0.126276538380254E+04     0.913781918545035E+05     0.000000000000000E+00    -0.117079534521600E+05    -0.966678898455464E+05
     0.880000000000000E+00     0.480512820512820E+01    -0.111427125739522E+05    -0.912300288146261E+05     0.123765504985240E+04     0.862271626687075E+05     0.000000000000000E+00    -0.111235906399688E+05    -0.912491507486096E+05
     0.840000000000000E+00     0.505128205128205E+01    -0.106159289184372E+05    -0.858186393998224E+05     0.121093182484439E+04     0.810610344564256E+05     0.000000000000000E+00    -0.105964352609300E+05    -0.858381330573296E+05
     0.800000000000000E+00     0.529743589743590E+01    -0.101421585599398E+05    -0.804151998872163E+05     0.118214233150681E+04     0.758819901343286E+05     0.000000000000000E+00    -0.101222780306485E+05    -0.804350804165076E+05
     0.760000000000000E+00     0.554358974358974E+01    -0.971737253575836E+04    -0.750198665859626E+05     0.115087704369108E+04     0.706921867980100E+05     0.000000000000000E+00    -0.969709602332193E+04    -0.750401430983991E+05
     0.720000000000000E+00     0.578974358974359E+01    -0.933794283598055E+04    -0.696326957078400E+05     0.111677437158039E+04     0.654937013071082E+05     0.000000000000000E+00    -0.931726512573323E+04    -0.696533734180873E+05
     0.680000000000000E+00     0.603589743589744E+01    -0.900085567645065E+04    -0.642536379636490E+05     0.107952474689845E+04     0.602885046547993E+05     0.000000000000000E+00    -0.897977204750864E+04    -0.642747215925910E+05
     0.640000000000000E+00     0.628205128205128E+01    -0.870392477173681E+04    -0.588825331596112E+05     0.103887470811819E+04     0.550784863691052E+05     0.000000000000000E+00    -0.868242560148268E+04    -0.589040323298653E+05
     0.600000000000000E+00     0.652820512820513E+01    -0.844600460809820E+04    -0.535191047937674E+05     0.994630985670485E+03     0.498655676639682E+05     0.000000000000000E+00    -0.842406670008268E+04    -0.535410427017830E+05
     0.560000000000000E+00     0.677435897435898E+01    -0.822720371645227E+04    -0.481629546523769E+05     0.946664587152833E+03     0.446519782747559E+05     0.000000000000000E+00    -0.820477592146680E+04    -0.481853824473624E+05
     0.520000000000000E+00     0.702051282051282E+01    -0.804909794534185E+04    -0.428135574063152E+05     0.894914882538092E+03     0.394408516199457E+05     0.000000000000000E+00    -0.802607608182958E+04    -0.428365792698275E+05
     0.480000000000000E+00     0.726666666666667E+01    -0.791494373390245E+04    -0.374702552074734E+05     0.839393689383181E+03     0.342374815554421E+05     0.000000000000000E+00    -0.789112350236892E+04    -0.374940754390069E+05
     0.440000000000000E+00     0.751282051282051E+01    -0.782989138482936E+04    -0.321322522851563E+05     0.780189358037789E+03     0.290520718189880E+05     0.000000000000000E+00    -0.780487038434204E+04    -0.321572732856437E+05
     0.400000000000000E+00     0.775897435897436E+01    -0.780119833734495E+04    -0.267986095424815E+05     0.717470856853090E+03     0.239062166390734E+05     0.000000000000000E+00    -0.777414031935789E+04    -0.268256675604685E+05
     0.360000000000000E+00     0.800512820512821E+01    -0.783844244016577E+04    -0.214682391527776E+05     0.651491857390450E+03     0.188499931097765E+05     0.000000000000000E+00    -0.780737254888047E+04    -0.214993090440629E+05
     0.320000000000000E+00     0.825128205128205E+01    -0.795373522446983E+04    -0.161398991559829E+05     0.582594819630136E+03     0.140144216620422E+05     0.000000000000000E+00    -0.791248088287771E+04    -0.161811534975751E+05
     0.280000000000000E+00     0.849743589743590E+01    -0.816193517686373E+04    -0.108121880550445E+05     0.511215077180032E+03     0.980082858278054E+04     0.000000000000000E+00    -0.806674442084855E+04    -0.109073788110597E+05
     0.240000000000000E+00     0.874358974358974E+01    -0.848086101234992E+04    -0.548353941231611E+04     0.437884922484339E+03     0.748760989913620E+04     0.000000000000000E+00    -0.542087788851694E+04    -0.854352253614908E+04
     0.156000000000000E+01     0.387179487179487E+01    -0.137679255678758E+05    -0.111238329580805E+06     0.199322584099446E+04     0.105090054468378E+06     0.000000000000000E+00    -0.137271820287734E+05    -0.111279073119907E+06
     0.150000000000000E+01     0.411538461538461E+01    -0.130109815923925E+05    -0.105892923818700E+06     0.195943896101918E+04     0.100081688022468E+06     0.000000000000000E+00    -0.129696636163164E+05    -0.105934241794776E+06
     0.144000000000000E+01     0.435897435897436E+01    -0.123194142584926E+05    -0.100553114107950E+06     0.192536521007563E+04     0.950529449852973E+05     0.000000000000000E+00    -0.122774204656464E+05    -0.100595107900796E+06
     0.138000000000000E+01     0.460256410256410E+01    -0.116899182662302E+05    -0.952193407852878E+05     0.189019585660913E+04     0.900054957135430E+05     0.000000000000000E+00    -0.116471667114700E+05    -0.952620923400479E+05
     0.132000000000000E+01     0.484615384615385E+01    -0.111187930446382E+05    -0.898919687436252E+05     0.185316800281923E+04     0.849411920182367E+05     0.000000000000000E+00    -0.110752206855738E+05    -0.899355411026896E+05
     0.126000000000000E+01     0.508974358974359E+01    -0.106021435161544E+05    -0.845712817334564E+05     0.181357060402006E+04     0.798619896440157E+05     0.000000000000000E+00    -0.105577052051034E+05    -0.846157200445075E+05
     0.120000000000000E+01     0.533333333333333E+01    -0.101360808610467E+05    -0.792574766642565E+05     0.177075048800054E+04     0.747698750966436E+05     0.000000000000000E+00    -0.100907475435598E+05    -0.793028099817433E+05
     0.114000000000000E+01     0.557692307692308E+01    -0.971692328183938E+04    -0.739506579058822E+05     0.172411837438473E+04     0.696668018913717E+05     0.000000000000000E+00    -0.967067895790616E+04    -0.739969022298154E+05
     0.108000000000000E+01     0.582051282051282E+01    -0.934139676773890E+04    -0.686508315899715E+05     0.167315489399200E+04     0.645546439626745E+05     0.000000000000000E+00    -0.929423356444875E+04    -0.686979947932616E+05
     0.102000000000000E+01     0.606410256410256E+01    -0.900683585905956E+04    -0.633578999113443E+05     0.161741660819742E+04     0.594351787912275E+05     0.000000000000000E+00    -0.895874620497058E+04    -0.634059895654333E+05
     0.960000000000000E+00     0.630769230769231E+01    -0.871138441164944E+04    -0.580716554294020E+05     0.155654202829197E+04     0.543101218749311E+05     0.000000000000000E+00    -0.866234864807231E+04    -0.581206911929792E+05
     0.900000000000000E+00     0.655128205128205E+01    -0.845419636131623E+04    -0.527917753695275E+05     0.149025763484281E+04     0.491812520275815E+05     0.000000000000000E+00    -0.840416285664052E+04    -0.528418088742033E+05
     0.840000000000000E+00     0.679487179487179E+01    -0.823563648825301E+04    -0.475178159244858E+05     0.141838389705359E+04     0.440507039508841E+05     0.000000000000000E+00    -0.818448869524543E+04    -0.475689637174934E+05
     0.780000000000000E+00     0.703846153846154E+01    -0.805748118146413E+04    -0.422492065558232E+05     0.134084129212472E+04     0.389215857454822E+05     0.000000000000000E+00    -0.800498020357159E+04    -0.423017075337157E+05
     0.720000000000000E+00     0.728205128205128E+01    -0.792311920319101E+04    -0.369852442952681E+05     0.125765632461363E+04     0.337992708866716E+05     0.000000000000000E+00    -0.786879597621262E+04    -0.370395675222465E+05
     0.660000000000000E+00     0.752564102564103E+01    -0.783775245333799E+04    -0.317250880461309E+05     0.116896754579505E+04     0.286942092373706E+05     0.000000000000000E+00    -0.778068337428384E+04    -0.317821571251850E+05
     0.600000000000000E+00     0.776923076923077E+01    -0.780859673389813E+04    -0.264677528847037E+05     0.107503157302129E+04     0.236285250415307E+05     0.000000000000000E+00    -0.774686393445341E+04    -0.265294856841485E+05
     0.540000000000000E+00     0.801282051282051E+01    -0.784508251337908E+04    -0.212121043616610E+05     0.976229109082531E+03     0.186533388944807E+05     0.000000000000000E+00    -0.777416218488806E+04    -0.212830246901520E+05
     0.480000000000000E+00     0.825641025641026E+01    -0.795905569122887E+04    -0.159568528034588E+05     0.873070961567061E+03     0.139015465858896E+05     0.000000000000000E+00    -0.786485730663623E+04    -0.160510511880515E+05
     0.420000000000000E+00     0.850000000000000E+01    -0.816497836226178E+04    -0.107005476137359E+05     0.766204062221593E+03     0.977548245123590E+04     0.000000000000000E+00    -0.795143030348123E+04    -0.109140956725164E+05
     0.360000000000000E+00     0.874358974358974E+01    -0.848012958108414E+04    -0.544157157471273E+04     0.656417486311519E+03     0.752799565524572E+04     0.000000000000000E+00    -0.530583015329441E+04    -0.861587100250246E+04
     0.208000000000000E+01     0.392307692307692E+01    -0.137073252958876E+05    -0.109299463966801E+06     0.263989625068853E+04     0.103232589038450E+06     0.000000000000000E+00    -0.136344767813011E+05    -0.109372312481387E+06
     0.200000000000000E+01     0.416410256410256E+01    -0.129722408498027E+05    -0.104062841857513E+06     0.259718164893801E+04     0.983242691180020E+05     0.000000000000000E+00    -0.128982499244385E+05    -0.104136832782878E+06
     0.192000000000000E+01     0.440512820512820E+01    -0.122985995289420E+05    -0.988306689439806E+05     0.255374079523241E+04     0.933961596208122E+05     0.000000000000000E+00    -0.122232988698451E+05    -0.989059696030776E+05
     0.184000000000000E+01     0.464615384615385E+01    -0.116833673049646E+05    -0.936033117089187E+05     0.250853877698735E+04     0.884497454105452E+05     0.000000000000000E+00    -0.116066231472915E+05    -0.936800558665918E+05
     0.176000000000000E+01     0.488717948717949E+01    -0.111231677241452E+05    -0.883810640536362E+05     0.246059915278216E+04     0.834866671327669E+05     0.000000000000000E+00    -0.110448790396235E+05    -0.884593527381579E+05
     0.168000000000000E+01     0.512820512820513E+01    -0.106144700593161E+05    -0.831641411270609E+05     0.240901190833593E+04     0.785086496709975E+05     0.000000000000000E+00    -0.105345668183878E+05    -0.832440443679892E+05
     0.160000000000000E+01     0.536923076923077E+01    -0.101537774618091E+05    -0.779526731547681E+05     0.235294141248346E+04     0.735174357062535E+05     0.000000000000000E+00    -0.100722174128956E+05    -0.780342332036816E+05
     0.152000000000000E+01     0.561025641025641E+01    -0.973781511339769E+04    -0.727466992680078E+05     0.229163437315132E+04     0.685147294695930E+05     0.000000000000000E+00    -0.965457828416582E+04    -0.728299360972397E+05
     0.144000000000000E+01     0.585128205128205E+01    -0.936371837823870E+04    -0.675461613327336E+05     0.222442779333384E+04     0.635021585257313E+05     0.000000000000000E+00    -0.927879812896550E+04    -0.676310815820068E+05
     0.136000000000000E+01     0.609230769230769E+01    -0.902922095481468E+04    -0.623508977786290E+05     0.215075692706913E+04     0.584812663863874E+05     0.000000000000000E+00    -0.894260976521478E+04    -0.624375089682289E+05
     0.128000000000000E+01     0.633333333333333E+01    -0.873284302787574E+04    -0.571606374281365E+05     0.207016323541507E+04     0.534535580852291E+05     0.000000000000000E+00    -0.864451001265868E+04    -0.572489704433536E+05
     0.120000000000000E+01     0.657435897435897E+01    -0.847407942038154E+04    -0.519749933254849E+05     0.198230234242535E+04     0.484206391905717E+05     0.000000000000000E+00    -0.838393426993274E+04    -0.520651384759337E+05
     0.112000000000000E+01     0.681538461538462E+01    -0.825358774544333E+04    -0.467934565657164E+05     0.188695199112546E+04     0.433845266404052E+05     0.000000000000000E+00    -0.816142103024287E+04    -0.468856232809169E+05
     0.104000000000000E+01     0.705641025641026E+01    -0.807337655826595E+04    -0.416153901237158E+05     0.178401999948871E+04     0.383482929370845E+05     0.000000000000000E+00    -0.797875569584286E+04    -0.417100109861389E+05
     0.960000000000000E+00     0.729743589743590E+01    -0.793699350808984E+04    -0.364400226832370E+05     0.167355221641225E+04     0.333174012596115E+05     0.000000000000000E+00    -0.783906751211170E+04    -0.365379486792151E+05
     0.880000000000000E+00     0.753846153846154E+01    -0.784971349013299E+04    -0.312664424659314E+05     0.155574047769306E+04     0.283025934578632E+05     0.000000000000000E+00    -0.774680677568349E+04    -0.313693491803809E+05
     0.800000000000000E+00     0.777948717948718E+01    -0.781872679753307E+04    -0.260935910603756E+05     0.143093056200398E+04     0.233266373554522E+05     0.000000000000000E+00    -0.770736288678718E+04    -0.262049549711214E+05
     0.720000000000000E+00     0.802051282051282E+01    -0.785332727328926E+04    -0.209202572510991E+05     0.129963014686969E+04     0.184419467908143E+05     0.000000000000000E+00    -0.772532070705721E+04    -0.210482638173311E+05
     0.640000000000000E+00     0.826153846153846E+01    -0.796510046220442E+04    -0.157450708476123E+05     0.116251676464277E+04     0.137838073828608E+05     0.000000000000000E+00    -0.779510658753235E+04    -0.159150647222843E+05
     0.560000000000000E+00     0.850256410256410E+01    -0.816811176282700E+04    -0.105664965134338E+05     0.102044575847967E+04     0.975625453302594E+04     0.000000000000000E+00    -0.779270199822808E+04    -0.109419062780327E+05
     0.480000000000000E+00     0.874358974358974E+01    -0.847909457939308E+04    -0.538282759511867E+04     0.874458238316745E+03     0.758435265221535E+04     0.000000000000000E+00    -0.515293000765210E+04    -0.870899216685965E+04
     0.260000000000000E+01     0.397435897435897E+01    -0.136808364207155E+05    -0.107133048725915E+06     0.326719843363530E+04     0.101148452565633E+06     0.000000000000000E+00    -0.135667506246397E+05    -0.107247134521990E+06
     0.250000000000000E+01     0.421282051282051E+01    -0.129664895562490E+05    -0.102019406770532E+06     0.321752785184555E+04     0.963551404608544E+05     0.000000000000000E+00    -0.128503899753690E+05    -0.102135506351412E+06
     0.240000000000000E+01     0.445128205128205E+01    -0.123092741727965E+05    -0.969087783039731E+05     0.316649572954200E+04     0.915425196657321E+05     0.000000000000000E+00    -0.121909201984465E+05    -0.970271322783231E+05
     0.230000000000000E+01     0.468974358974359E+01    -0.117064970146085E+05    -0.918014437733635E+05     0.311286283524353E+04     0.867118421488700E+05     0.000000000000000E+00    -0.115856988466193E+05    -0.919222419413527E+05
     0.220000000000000E+01     0.492820512820513E+01    -0.111551715471342E+05    -0.866976134604457E+05     0.305545914339093E+04     0.818644903046202E+05     0.000000000000000E+00    -0.110317891527395E+05    -0.868209958548404E+05
     0.210000000000000E+01     0.516666666666667E+01    -0.106521934028312E+05    -0.815974206954295E+05     0.299319377826117E+04     0.770019117230280E+05     0.000000000000000E+00    -0.105261339292817E+05    -0.817234801689790E+05
     0.200000000000000E+01     0.540512820512820E+01    -0.101945158269750E+05    -0.765009150708411E+05     0.292506495788160E+04     0.721255598604143E+05     0.000000000000000E+00    -0.100657285764335E+05    -0.766297023213826E+05
     0.190000000000000E+01     0.564358974358974E+01    -0.977932512346872E+04    -0.714080556553736E+05     0.285016993794418E+04     0.672368457446382E+05     0.000000000000000E+00    -0.964779283548524E+04    -0.715395879433571E+05
     0.180000000000000E+01     0.588205128205128E+01    -0.940421610065241E+04    -0.663187042077364E+05     0.276771495571973E+04     0.623371086962217E+05     0.000000000000000E+00    -0.926994069126684E+04    -0.664529796171220E+05
     0.170000000000000E+01     0.612051282051282E+01    -0.906736751711288E+04    -0.612326183905063E+05     0.267702517397213E+04     0.574276191828650E+05     0.000000000000000E+00    -0.893034739073802E+04    -0.613696385168812E+05
     0.160000000000000E+01     0.635897435897436E+01    -0.876771752749317E+04    -0.561494449839760E+05     0.257755462487256E+04     0.525096365749949E+05     0.000000000000000E+00    -0.862791168825691E+04    -0.562892508232122E+05
     0.150000000000000E+01     0.659743589743590E+01    -0.850513912830215E+04    -0.510687131000048E+05     0.246889615391375E+04     0.475845635045644E+05     0.000000000000000E+00    -0.836240965450004E+04    -0.512114425738069E+05
     0.140000000000000E+01     0.683589743589744E+01    -0.828061560372411E+04    -0.459898273958689E+05     0.235079136382416E+04     0.426542775866657E+05     0.000000000000000E+00    -0.813463246859965E+04    -0.461358105309933E+05
     0.130000000000000E+01     0.707435897435897E+01    -0.809641597142835E+04    -0.409120612881108E+05     0.222314055848227E+04     0.377218067676473E+05     0.000000000000000E+00    -0.794649124885013E+04    -0.410619860106890E+05
     0.120000000000000E+01     0.731282051282051E+01    -0.795627042837872E+04    -0.358345501663892E+05     0.208601268683075E+04     0.327927156506246E+05     0.000000000000000E+00    -0.780104726753013E+04    -0.359897733272378E+05
     0.110000000000000E+01     0.755128205128205E+01    -0.786554579664325E+04    -0.307562846073296E+05     0.193965528679072E+04     0.278780859512868E+05     0.000000000000000E+00    -0.770235183452615E+04    -0.309194785694467E+05
     0.100000000000000E+01     0.778974358974359E+01    -0.783142096920372E+04    -0.256761035883735E+05     0.178450442917598E+04     0.230014443459879E+05     0.000000000000000E+00    -0.765471669683477E+04    -0.258528078607424E+05
     0.900000000000000E+00     0.802820512820513E+01    -0.786306235576521E+04    -0.205926877016287E+05     0.162119466160722E+04     0.182167440918850E+05     0.000000000000000E+00    -0.765983784150501E+04    -0.207959122158889E+05
     0.800000000000000E+00     0.826666666666667E+01    -0.797179932856573E+04    -0.155045523677193E+05     0.145056895242627E+04     0.136621374374877E+05     0.000000000000000E+00    -0.770212054959141E+04    -0.157742311466936E+05
     0.700000000000000E+00     0.850512820512821E+01    -0.817129966818573E+04    -0.104100410496358E+05     0.127368863461031E+04     0.974383785587138E+04     0.000000000000000E+00    -0.759500721984401E+04    -0.109863334979775E+05
     0.600000000000000E+00     0.874358974358974E+01    -0.847774500935779E+04    -0.530731846658452E+04     0.109184334968610E+04     0.765650460765498E+04     0.000000000000000E+00    -0.496768810379354E+04    -0.881737537214877E+04
     0.312000000000000E+01     0.402564102564102E+01    -0.136878307795175E+05    -0.104740780066258E+06     0.386875228425119E+04     0.988393412553222E+05     0.000000000000000E+00    -0.135237469048489E+05    -0.104904863940927E+06
     0.300000000000000E+01     0.426153846153846E+01    -0.129929173063681E+05    -0.997640280088914E+05     0.381457151621993E+04     0.941759220086342E+05     0.000000000000000E+00    -0.128255465907195E+05    -0.999313987245400E+05
     0.288000000000000E+01     0.449743589743590E+01    -0.123505027176645E+05    -0.947885973887490E+05     0.375818899899452E+04     0.894935653346571E+05     0.000000000000000E+00    -0.121795289393944E+05    -0.949595711670192E+05
     0.276000000000000E+01     0.473333333333333E+01    -0.117582962480074E+05    -0.898146692606614E+05     0.369818194840873E+04     0.847932456369306E+05     0.000000000000000E+00    -0.115834740471423E+05    -0.899894914615265E+05
     0.264000000000000E+01     0.496923076923077E+01    -0.112137597671383E+05    -0.848423562027308E+05     0.363320541881238E+04     0.800760423501100E+05     0.000000000000000E+00    -0.110349135540522E+05    -0.850212024158169E+05
     0.252000000000000E+01     0.520512820512820E+01    -0.107142704265259E+05    -0.798716948094671E+05     0.356200432905478E+04     0.753430813639608E+05     0.000000000000000E+00    -0.105312908918915E+05    -0.800546743441016E+05
     0.240000000000000E+01     0.544102564102564E+01    -0.102572833059515E+05    -0.749026381849230E+05     0.348342548846814E+04     0.705954831915982E+05     0.000000000000000E+00    -0.100701202353586E+05    -0.750898012555159E+05
     0.228000000000000E+01     0.567692307692308E+01    -0.984049406009461E+04    -0.699350484358296E+05     0.339642962285100E+04     0.658343230913201E+05     0.000000000000000E+00    -0.964914362388627E+04    -0.701263988720379E+05
     0.216000000000000E+01     0.591282051282051E+01    -0.946200156511950E+04    -0.649686891647319E+05     0.330010340045167E+04     0.610606113153351E+05     0.000000000000000E+00    -0.926648537880258E+04    -0.651642053510488E+05
     0.204000000000000E+01     0.614871794871795E+01    -0.912047056526027E+04    -0.600032179631238E+05     0.319367145795164E+04     0.562753070018491E+05     0.000000000000000E+00    -0.892080229881879E+04    -0.602028862295653E+05
     0.192000000000000E+01     0.638461538461539E+01    -0.881529431940704E+04    -0.550381789045843E+05     0.307650842644903E+04     0.514793892496477E+05     0.000000000000000E+00    -0.861142685763756E+04    -0.552420463663538E+05
     0.180000000000000E+01     0.662051282051282E+01    -0.854675724769163E+04    -0.500729950379123E+05     0.294815095744200E+04     0.466740285433715E+05     0.000000000000000E+00    -0.833849802117262E+04    -0.502812542644313E+05
     0.168000000000000E+01     0.685641025641026E+01    -0.831619757807342E+04    -0.451069608802623E+05     0.280830974881219E+04     0.418609421074132E+05     0.000000000000000E+00    -0.810306854897920E+04    -0.453200899093566E+05
     0.156000000000000E+01     0.709230769230769E+01    -0.812616999292512E+04    -0.401392349102802E+05     0.265688157080813E+04     0.370431050360736E+05     0.000000000000000E+00    -0.790716390793646E+04    -0.403582409952688E+05
     0.144000000000000E+01     0.732820512820513E+01    -0.798060827561857E+04    -0.351688320612378E+05     0.249396129202869E+04     0.322261960769043E+05     0.000000000000000E+00    -0.775373174211203E+04    -0.353957085947444E+05
     0.132000000000000E+01     0.756410256410256E+01    -0.788498795711060E+04    -0.301946162141695E+05     0.231985390540651E+04     0.274216860279187E+05     0.000000000000000E+00    -0.764631269983422E+04    -0.304332914714458E+05
     0.120000000000000E+01     0.780000000000000E+01    -0.784648896252880E+04    -0.252152926910064E+05     0.213508655419140E+04     0.226539763071952E+05     0.000000000000000E+00    -0.758788068848176E+04    -0.254739009650534E+05
     0.108000000000000E+01     0.803589743589744E+01    -0.787415825775730E+04    -0.202294007477132E+05     0.194042055793378E+04     0.179787990632760E+05     0.000000000000000E+00    -0.757657786973146E+04    -0.205269811357390E+05
     0.960000000000000E+00     0.827179487179487E+01    -0.797907249602266E+04    -0.152353060674223E+05     0.173686343846813E+04     0.135376002698198E+05     0.000000000000000E+00    -0.758476140610256E+04    -0.156296171573424E+05
     0.840000000000000E+00     0.850769230769231E+01    -0.817450066447957E+04    -0.102311932535702E+05     0.152568094589641E+04     0.973899314620166E+04     0.000000000000000E+00    -0.736295607906042E+04    -0.110427378389894E+05
     0.720000000000000E+00     0.874358974358974E+01    -0.847606673079675E+04    -0.521505832303246E+04     0.130840908457144E+04     0.774423406053153E+04     0.000000000000000E+00    -0.475499363508960E+04    -0.893613141873960E+04
     0.364000000000000E+01     0.407692307692308E+01    -0.137270252179565E+05    -0.102125180128241E+06     0.443816325921955E+04     0.963078428472878E+05     0.000000000000000E+00    -0.135047593683184E+05    -0.102347445977879E+06
     0.350000000000000E+01     0.431025641025641E+01    -0.130501283195933E+05    -0.972988308617273E+05     0.438237960856379E+04     0.917890073005781E+05     0.000000000000000E+00    -0.128227828000735E+05    -0.975261763812471E+05
     0.336000000000000E+01     0.454358974358974E+01    -0.124208311376175E+05    -0.924718978447285E+05     0.432334464081459E+04     0.872515044896104E+05     0.000000000000000E+00    -0.121880159269330E+05    -0.927047130554130E+05
     0.322000000000000E+01     0.477692307692308E+01    -0.118372987158989E+05    -0.876444476275232E+05     0.425947078578920E+04     0.826959890659221E+05     0.000000000000000E+00    -0.115987173870377E+05    -0.878830289563844E+05
     0.308000000000000E+01     0.501025641025641E+01    -0.112974920122368E+05    -0.828164789575350E+05     0.418925475087942E+04     0.781231948225965E+05     0.000000000000000E+00    -0.110529408678127E+05    -0.830610301019592E+05
     0.294000000000000E+01     0.524358974358974E+01    -0.107993176439803E+05    -0.779879144859728E+05     0.411129175976325E+04     0.735338831173976E+05     0.000000000000000E+00    -0.105486813430296E+05    -0.782385507869235E+05
     0.280000000000000E+01     0.547692307692308E+01    -0.103407776336483E+05    -0.731585924744707E+05     0.402428979111642E+04     0.689287989385692E+05     0.000000000000000E+00    -0.100840195207592E+05    -0.734153505873598E+05
     0.266000000000000E+01     0.571025641025641E+01    -0.992011915455010E+04    -0.683282585017282E+05     0.392708381732402E+04     0.643086399318496E+05     0.000000000000000E+00    -0.965726376276913E+04    -0.685911138935091E+05
     0.252000000000000E+01     0.594358974358974E+01    -0.953598427640567E+04    -0.634965571701504E+05     0.381865004319207E+04     0.596740468064526E+05     0.000000000000000E+00    -0.926708826017181E+04    -0.637654531863842E+05
     0.238000000000000E+01     0.617692307692308E+01    -0.918755971096596E+04    -0.586630238124880E+05     0.369812014465913E+04     0.550256291193208E+05     0.000000000000000E+00    -0.891266535785682E+04    -0.589379181655971E+05
     0.224000000000000E+01     0.641025641025641E+01    -0.887472655763325E+04    -0.538270761984769E+05     0.356479550750787E+04     0.503640508887249E+05     0.000000000000000E+00    -0.859378816990602E+04    -0.541080145862041E+05
     0.210000000000000E+01     0.664358974358974E+01    -0.859821004908140E+04    -0.489880062414792E+05     0.341816146607670E+04     0.456902209169303E+05     0.000000000000000E+00    -0.831097600714513E+04    -0.492752402834155E+05
     0.196000000000000E+01     0.687692307692308E+01    -0.835972929687630E+04    -0.441449717051222E+05     0.325790154197131E+04     0.410056746665818E+05     0.000000000000000E+00    -0.806554715320309E+04    -0.444391538487954E+05
     0.182000000000000E+01     0.711025641025641E+01    -0.816214703709606E+04    -0.392969879099395E+05     0.308391168277629E+04     0.363133259756620E+05     0.000000000000000E+00    -0.785962448964148E+04    -0.395995104573941E+05
     0.168000000000000E+01     0.734358974358974E+01    -0.800961937595145E+04    -0.344429194400100E+05     0.289631450076675E+04     0.316189806959310E+05     0.000000000000000E+00    -0.769598944943991E+04    -0.347565493665216E+05
     0.154000000000000E+01     0.757692307692308E+01    -0.790774553540616E+04    -0.295814718495988E+05     0.269547351161983E+04     0.269345483839523E+05     0.000000000000000E+00    -0.757755086434220E+04    -0.299116665206628E+05
     0.140000000000000E+01     0.781025641025641E+01    -0.786371759879716E+04    -0.247111833697971E+05     0.248200737312639E+04     0.222854201723448E+05     0.000000000000000E+00    -0.750567183037357E+04    -0.250692291382207E+05
     0.126000000000000E+01     0.804358974358974E+01    -0.788647025645500E+04    -0.198304166151617E+05     0.225680412390253E+04     0.177293355766435E+05     0.000000000000000E+00    -0.747427328546154E+04    -0.202426135861552E+05
     0.112000000000000E+01     0.827692307692308E+01    -0.798683055132416E+04    -0.149373502903559E+05     0.202103542210121E+04     0.134113967516318E+05     0.000000000000000E+00    -0.744188951316697E+04    -0.154822913285131E+05
     0.980000000000000E+00     0.851025641025641E+01    -0.817766762458335E+04    -0.100299708967889E+05     0.177617078412383E+04     0.974254297673522E+04     0.000000000000000E+00    -0.710068683684818E+04    -0.111069516845241E+05
     0.840000000000000E+00     0.874358974358974E+01    -0.847404246126586E+04    -0.510606443925636E+04     0.152399182333183E+04     0.784728845256143E+04     0.000000000000000E+00    -0.451884890932538E+04    -0.906125799119683E+04
     0.416000000000000E+01     0.412820512820513E+01    -0.137964425165358E+05    -0.992896137704640E+05     0.496905046040818E+04     0.935574698640413E+05     0.000000000000000E+00    -0.135085995398638E+05    -0.995774567471360E+05
     0.400000000000000E+01     0.435897435897436E+01    -0.131361097451811E+05    -0.946266701014731E+05     0.491501534506038E+04     0.891975889695624E+05     0.000000000000000E+00    -0.128407365094523E+05    -0.949220433372019E+05
     0.384000000000000E+01     0.458974358974359E+01    -0.125182613805054E+05    -0.899610787556556E+05     0.485647081289643E+04     0.848192324134446E+05     0.000000000000000E+00    -0.122148984543128E+05    -0.902644416818482E+05
     0.368000000000000E+01     0.482051282051282E+01    -0.119415627213545E+05    -0.852927742717350E+05     0.479168029451675E+04     0.804226948671052E+05     0.000000000000000E+00    -0.116298698790189E+05    -0.856044671140705E+05
     0.352000000000000E+01     0.505128205128205E+01    -0.114045163407278E+05    -0.806216227557451E+05     0.471899576623992E+04     0.760083232134948E+05     0.000000000000000E+00    -0.110842723150257E+05    -0.809418667814472E+05
     0.336000000000000E+01     0.528205128205128E+01    -0.109055988113632E+05    -0.759474127774236E+05     0.463687436221821E+04     0.715764723219871E+05     0.000000000000000E+00    -0.105766961320849E+05    -0.762763154567019E+05
     0.320000000000000E+01     0.551282051282051E+01    -0.104433974313211E+05    -0.712698462666040E+05     0.454389498655296E+04     0.671274694315900E+05     0.000000000000000E+00    -0.101058299709207E+05    -0.716074137270044E+05
     0.304000000000000E+01     0.574358974358974E+01    -0.100167469495682E+05    -0.665885294096086E+05     0.443877492541018E+04     0.626615926071259E+05     0.000000000000000E+00    -0.967058681202160E+04    -0.669346895471552E+05
     0.288000000000000E+01     0.597435897435897E+01    -0.962486629156227E+04    -0.619029635456410E+05     0.432038645913592E+04     0.581790719860159E+05     0.000000000000000E+00    -0.927022506076919E+04    -0.622576047764341E+05
     0.272000000000000E+01     0.620512820512820E+01    -0.926749528483595E+04    -0.572125360631792E+05     0.418777347437182E+04     0.536801283852226E+05     0.000000000000000E+00    -0.890446183847916E+04    -0.575755695095360E+05
     0.256000000000000E+01     0.643589743589744E+01    -0.894503138458110E+04    -0.525165112963681E+05     0.404016807617053E+04     0.491650747757908E+05     0.000000000000000E+00    -0.857357333374275E+04    -0.528879693472064E+05
     0.240000000000000E+01     0.666666666666667E+01    -0.865866639923298E+04    -0.478140214214119E+05     0.387700720011124E+04     0.446345274658061E+05     0.000000000000000E+00    -0.827847224128087E+04    -0.481942155793640E+05
     0.224000000000000E+01     0.689743589743590E+01    -0.841052321605445E+04    -0.431040573529675E+05     0.369794922441512E+04     0.400898175523596E+05     0.000000000000000E+00    -0.802074168582244E+04    -0.434938388831995E+05
     0.208000000000000E+01     0.712820512820513E+01    -0.820379252672012E+04    -0.383854596405365E+05     0.350289058206079E+04     0.355337882021133E+05     0.000000000000000E+00    -0.780257974132102E+04    -0.387866724259356E+05
     0.192000000000000E+01     0.735897435897436E+01    -0.804286955290059E+04    -0.336569093648584E+05     0.329198237289986E+04     0.309723846497870E+05     0.000000000000000E+00    -0.762654242359288E+04    -0.340732364941661E+05
     0.176000000000000E+01     0.758974358974359E+01    -0.793349077184664E+04    -0.289169190343029E+05     0.306564697577231E+04     0.264180042034729E+05     0.000000000000000E+00    -0.749477687890875E+04    -0.293556329272408E+05
     0.160000000000000E+01     0.782051282051282E+01    -0.788287064197342E+04    -0.241638234812631E+05     0.282459466062204E+04     0.218971396548475E+05     0.000000000000000E+00    -0.740675310950422E+04    -0.246399410137323E+05
     0.144000000000000E+01     0.805128205128205E+01    -0.789983832844463E+04    -0.193957707585478E+05     0.256984020061235E+04     0.174697496162839E+05     0.000000000000000E+00    -0.735152038011400E+04    -0.199440887068785E+05
     0.128000000000000E+01     0.828205128205128E+01    -0.799497442875674E+04    -0.146107130357744E+05     0.230271948424134E+04     0.132848720540552E+05     0.000000000000000E+00    -0.727239507830648E+04    -0.153332923862247E+05
     0.112000000000000E+01     0.851282051282051E+01    -0.818074769832317E+04    -0.980639749576160E+04     0.202490612745747E+04     0.975536444635719E+04     0.000000000000000E+00    -0.681161724896747E+04    -0.111755279451173E+05
     0.960000000000000E+00     0.874358974358974E+01    -0.847165177605849E+04    -0.498035723092163E+04     0.173842808577502E+04     0.796538677089064E+04     0.000000000000000E+00    -0.426238590280589E+04    -0.918962310417422E+04
     0.468000000000000E+01     0.417948717948718E+01    -0.138933723169334E+05    -0.962383053556067E+05     0.545507471778684E+04     0.905926935526793E+05     0.000000000000000E+00    -0.135335641638838E+05    -0.965981135086562E+05
     0.450000000000000E+01     0.440769230769231E+01    -0.132481999672367E+05    -0.917511436291574E+05     0.540656142122980E+04     0.864056848871243E+05     0.000000000000000E+00    -0.128775952839833E+05    -0.921217483124107E+05
     0.432000000000000E+01     0.463589743589744E+01    -0.126402258952728E+05    -0.872591776343246E+05     0.535207886323902E+04     0.822003523097288E+05     0.000000000000000E+00    -0.122583003870698E+05    -0.876411031425277E+05
     0.414000000000000E+01     0.486410256410256E+01    -0.120686508942217E+05    -0.827621892985625E+05     0.528975322509922E+04     0.779765914204974E+05     0.000000000000000E+00    -0.116750286293985E+05    -0.831558115633857E+05
     0.396000000000000E+01     0.509230769230769E+01    -0.115325532968016E+05    -0.782598898975670E+05     0.521780147350566E+04     0.737343214366832E+05     0.000000000000000E+00    -0.111270075898243E+05    -0.786654356045443E+05
     0.378000000000000E+01     0.532051282051282E+01    -0.110310125362685E+05    -0.737519101617577E+05     0.513455053003406E+04     0.694734486833036E+05     0.000000000000000E+00    -0.106134601708042E+05    -0.741694625272220E+05
     0.360000000000000E+01     0.554871794871795E+01    -0.105632327074142E+05    -0.692377903827593E+05     0.503845644061049E+04     0.651938397417228E+05     0.000000000000000E+00    -0.101337184208136E+05    -0.696673046693599E+05
     0.342000000000000E+01     0.577692307692308E+01    -0.101286661275662E+05    -0.647169705198832E+05     0.492812354498131E+04     0.608953099067202E+05     0.000000000000000E+00    -0.968733300650580E+04    -0.651583036409436E+05
     0.324000000000000E+01     0.600512820512821E+01    -0.972713689758558E+04    -0.601887803066092E+05     0.480232364618304E+04     0.565776360277505E+05     0.000000000000000E+00    -0.927417624264821E+04    -0.606417409615466E+05
     0.306000000000000E+01     0.623333333333333E+01    -0.935896446286682E+04    -0.556524293570673E+05     0.466001518001233E+04     0.522406089643814E+05     0.000000000000000E+00    -0.889453504834770E+04    -0.561168587715864E+05
     0.288000000000000E+01     0.646153846153846E+01    -0.902508717433607E+04    -0.511069972725191E+05     0.450036238449584E+04     0.478841523668317E+05     0.000000000000000E+00    -0.854918717977227E+04    -0.515828972670829E+05
     0.270000000000000E+01     0.668974358974359E+01    -0.872718584945027E+04    -0.465514237478394E+05     0.432275446936012E+04     0.435085568343166E+05     0.000000000000000E+00    -0.823944785713990E+04    -0.470391617401497E+05
     0.252000000000000E+01     0.691794871794872E+01    -0.846780733319605E+04    -0.419844986779976E+05     0.412682478550160E+04     0.391149241712099E+05     0.000000000000000E+00    -0.796716020514916E+04    -0.424851458060445E+05
     0.234000000000000E+01     0.714615384615385E+01    -0.825048805908857E+04    -0.374048522645404E+05     0.391246999445644E+04     0.347060153800066E+05     0.000000000000000E+00    -0.773457043003126E+04    -0.379207698935977E+05
     0.216000000000000E+01     0.737435897435897E+01    -0.807987761017045E+04    -0.328109451220718E+05     0.367986923787047E+04     0.302879255473540E+05     0.000000000000000E+00    -0.754394390395307E+04    -0.333468788282892E+05
     0.198000000000000E+01     0.760256410256410E+01    -0.796186228001066E+04    -0.282010583847362E+05     0.342950330696907E+04     0.258735865463774E+05     0.000000000000000E+00    -0.739652899549082E+04    -0.287663916692561E+05
     0.180000000000000E+01     0.783076923076923E+01    -0.790368863370341E+04    -0.235732838126991E+05     0.316217381202713E+04     0.214906988731291E+05     0.000000000000000E+00    -0.728961668427054E+04    -0.241873557621320E+05
     0.162000000000000E+01     0.805897435897436E+01    -0.791408706886705E+04    -0.189255138986290E+05     0.287902235183895E+04     0.172016276773789E+05     0.000000000000000E+00    -0.720677787722320E+04    -0.196328230902728E+05
     0.144000000000000E+01     0.828717948717949E+01    -0.800339537664294E+04    -0.142554319741789E+05     0.258154968318810E+04     0.131595218861259E+05     0.000000000000000E+00    -0.707523198596965E+04    -0.151835953648522E+05
     0.126000000000000E+01     0.851538461538462E+01    -0.818368230269436E+04    -0.956050231646869E+04     0.227163489031741E+04     0.977838034580395E+04     0.000000000000000E+00    -0.649843828835396E+04    -0.112457463308091E+05
     0.108000000000000E+01     0.874358974358974E+01    -0.846887110820543E+04    -0.483796025456526E+04     0.195155455439883E+04     0.809822640989991E+04     0.000000000000000E+00    -0.398799946894022E+04    -0.931883189383047E+04
     0.520000000000000E+01     0.423076923076923E+01    -0.140143320483370E+05    -0.929763555363230E+05     0.588996667234482E+04     0.874189784580644E+05     0.000000000000000E+00    -0.135774030171516E+05    -0.934132845675084E+05
     0.500000000000000E+01     0.445641025641026E+01    -0.133830569097406E+05    -0.886766061197015E+05     0.585114324158517E+04     0.834181649917814E+05     0.000000000000000E+00    -0.129310714903876E+05    -0.891285915390545E+05
     0.480000000000000E+01     0.468205128205128E+01    -0.127835621592741E+05    -0.843698814143054E+05     0.580470239938119E+04     0.793991967072071E+05     0.000000000000000E+00    -0.123159324122299E+05    -0.848375111613497E+05
     0.460000000000000E+01     0.490769230769231E+01    -0.122156099255664E+05    -0.800557862871567E+05     0.574863965697082E+04     0.753615310357823E+05     0.000000000000000E+00    -0.117319302880162E+05    -0.805394659247069E+05
     0.440000000000000E+01     0.513333333333333E+01    -0.116788799662147E+05    -0.757338508680027E+05     0.568104179040118E+04     0.713046180718218E+05     0.000000000000000E+00    -0.111789299182639E+05    -0.762338009159536E+05
     0.420000000000000E+01     0.535897435897436E+01    -0.111730798865505E+05    -0.714035199321574E+05     0.560010876760566E+04     0.672278721595247E+05     0.000000000000000E+00    -0.106568178160749E+05    -0.719197820026331E+05
     0.400000000000000E+01     0.558461538461538E+01    -0.106980553584042E+05    -0.670641422833414E+05     0.550417567548096E+04     0.631306542936181E+05     0.000000000000000E+00    -0.101655997189253E+05    -0.675965979228203E+05
     0.380000000000000E+01     0.581025641025641E+01    -0.102539003388711E+05    -0.627149601365221E+05     0.539173464696425E+04     0.590122712120006E+05     0.000000000000000E+00    -0.970549259490623E+04    -0.632633678804870E+05
     0.360000000000000E+01     0.603589743589744E+01    -0.984106728907611E+04    -0.583550985007556E+05     0.526145678811023E+04     0.548720006744229E+05     0.000000000000000E+00    -0.927700850972647E+04    -0.589191572801052E+05
     0.340000000000000E+01     0.626153846153846E+01    -0.946047739293965E+04    -0.539835545620260E+05     0.511221410516821E+04     0.507091589094143E+05     0.000000000000000E+00    -0.888102577985379E+04    -0.545630061751119E+05
     0.320000000000000E+01     0.648717948717949E+01    -0.911363077594261E+04    -0.495991870660866E+05     0.494310143165922E+04     0.465232382914244E+05     0.000000000000000E+00    -0.851883903404660E+04    -0.501939788079826E+05
     0.300000000000000E+01     0.671282051282051E+01    -0.880271672389183E+04    -0.452007057013004E+05     0.475345835545312E+04     0.423141667603084E+05     0.000000000000000E+00    -0.819217196420100E+04    -0.458112504609912E+05
     0.280000000000000E+01     0.693846153846154E+01    -0.853072390168544E+04    -0.407866604814806E+05     0.454289114584566E+04     0.380827882903560E+05     0.000000000000000E+00    -0.790311935377933E+04    -0.414142650293867E+05
     0.260000000000000E+01     0.716410256410256E+01    -0.830155057207818E+04    -0.363554311287310E+05     0.431129468063558E+04     0.338317668743688E+05     0.000000000000000E+00    -0.765394433628660E+04    -0.370030373645226E+05
     0.240000000000000E+01     0.738974358974359E+01    -0.812011481444673E+04    -0.319052164562871E+05     0.405887437320172E+04     0.295673547083570E+05     0.000000000000000E+00    -0.744655143066532E+04    -0.325787798400685E+05
     0.220000000000000E+01     0.761538461538461E+01    -0.799246474355505E+04    -0.274340237513561E+05     0.378616809958010E+04     0.253030608997253E+05     0.000000000000000E+00    -0.728114843492918E+04    -0.281453400599819E+05
     0.200000000000000E+01     0.784102564102564E+01    -0.792588872831975E+04    -0.229396581579575E+05     0.349406812554101E+04     0.210678899444096E+05     0.000000000000000E+00    -0.715256630880298E+04    -0.237129805774743E+05
     0.180000000000000E+01     0.806666666666667E+01    -0.792902561057537E+04    -0.184197120597647E+05     0.318384303366611E+04     0.169267669749889E+05     0.000000000000000E+00    -0.703836997542231E+04    -0.193103676949177E+05
     0.160000000000000E+01     0.829230769230769E+01    -0.801197492383978E+04    -0.138715544629437E+05     0.285715965042553E+04     0.130369974568889E+05     0.000000000000000E+00    -0.684945124476748E+04    -0.150340781420161E+05
     0.140000000000000E+01     0.851794871794872E+01    -0.818640711207948E+04    -0.929232037899570E+04     0.251610497325493E+04     0.981254882798488E+04     0.000000000000000E+00    -0.616321443407998E+04    -0.113155130569952E+05
     0.120000000000000E+01     0.874358974358974E+01    -0.846567374847493E+04    -0.467890020759607E+04     0.216320809763264E+04     0.824548993875260E+04     0.000000000000000E+00    -0.369750303204261E+04    -0.944707092402839E+04
     0.572000000000000E+01     0.428205128205128E+01    -0.141550278537787E+05    -0.895097580411310E+05     0.626755485900839E+04     0.840428177276196E+05     0.000000000000000E+00    -0.136372874454033E+05    -0.900274984495063E+05
     0.550000000000000E+01     0.450512820512821E+01    -0.135366263415750E+05    -0.854081826672174E+05     0.624295214928883E+04     0.802407790251567E+05     0.000000000000000E+00    -0.129983780786530E+05    -0.859464309301394E+05
     0.528000000000000E+01     0.472820512820513E+01    -0.129444872055899E+05    -0.812975374416692E+05     0.620891635783679E+04     0.764208501447836E+05     0.000000000000000E+00    -0.123850725568317E+05    -0.818569520904274E+05
     0.506000000000000E+01     0.495128205128205E+01    -0.123789503021147E+05    -0.771772210569570E+05     0.616331252404260E+04     0.725820097582334E+05     0.000000000000000E+00    -0.117979341566353E+05    -0.777582372024364E+05
     0.484000000000000E+01     0.517435897435897E+01    -0.118403140319622E+05    -0.730465512523265E+05     0.610409607091278E+04     0.687231951162319E+05     0.000000000000000E+00    -0.112374899787379E+05    -0.736493753055508E+05
     0.462000000000000E+01     0.539743589743590E+01    -0.113289319991599E+05    -0.689047535868332E+05     0.602933769910592E+04     0.648432821390872E+05     0.000000000000000E+00    -0.107043161935397E+05    -0.695293693924534E+05
     0.440000000000000E+01     0.562051282051282E+01    -0.108453096696427E+05    -0.647509502123774E+05     0.593724828096857E+04     0.609410776096794E+05     0.000000000000000E+00    -0.101991184056217E+05    -0.653971414763983E+05
     0.418000000000000E+01     0.584358974358974E+01    -0.103902010299458E+05    -0.605841486467394E+05     0.582620375457108E+04     0.570153296192742E+05     0.000000000000000E+00    -0.972280516763007E+04    -0.612515445090551E+05
     0.396000000000000E+01     0.606666666666667E+01    -0.996470524589795E+04    -0.564032305466144E+05     0.569477001774352E+04     0.530647662397913E+05     0.000000000000000E+00    -0.927655139883197E+04    -0.570913843936804E+05
     0.374000000000000E+01     0.628974358974359E+01    -0.957036332131372E+04    -0.522069404806480E+05     0.554172782211149E+04     0.490881792483787E+05     0.000000000000000E+00    -0.886184606762565E+04    -0.529154577343361E+05
     0.352000000000000E+01     0.651282051282051E+01    -0.920925475668689E+04    -0.479938747024705E+05     0.536609766713207E+04     0.450845824617910E+05     0.000000000000000E+00    -0.848051380628150E+04    -0.487226156528759E+05
     0.330000000000000E+01     0.673589743589744E+01    -0.888409420788313E+04    -0.437624699237323E+05     0.516716469412960E+04     0.410534988895807E+05     0.000000000000000E+00    -0.813469047326697E+04    -0.445118736583485E+05
     0.308000000000000E+01     0.695897435897436E+01    -0.859832814483291E+04    -0.395109920871394E+05     0.494450358033166E+04     0.369954809979656E+05     0.000000000000000E+00    -0.782671158086914E+04    -0.402826086511032E+05
     0.286000000000000E+01     0.718205128205128E+01    -0.835623151022442E+04    -0.352375251394880E+05     0.469800343290483E+04     0.329130760316072E+05     0.000000000000000E+00    -0.755882287296049E+04    -0.360349337767519E+05
     0.264000000000000E+01     0.740512820512821E+01    -0.816300437819641E+04    -0.309399598046989E+05     0.442789268299067E+04     0.288126955817068E+05     0.000000000000000E+00    -0.733249448046684E+04    -0.317704697024284E+05
     0.242000000000000E+01     0.762820512820513E+01    -0.802486861303116E+04    -0.266159823568542E+05     0.413476397974151E+04     0.247084619343410E+05     0.000000000000000E+00    -0.714675108838814E+04    -0.274940998814972E+05
     0.220000000000000E+01     0.785128205128205E+01    -0.794916452784729E+04    -0.222630633932308E+05     0.381959908435637E+04     0.206307650374570E+05     0.000000000000000E+00    -0.699369987179068E+04    -0.232185280492874E+05
     0.198000000000000E+01     0.807435897435898E+01    -0.794444754329266E+04    -0.178784466073363E+05     0.348379376411681E+04     0.166471972297038E+05     0.000000000000000E+00    -0.684449534137064E+04    -0.189783988092583E+05
     0.176000000000000E+01     0.829743589743590E+01    -0.802058484623731E+04    -0.134591375619438E+05     0.312918268642282E+04     0.129191084548932E+05     0.000000000000000E+00    -0.659423119221203E+04    -0.148854912159691E+05
     0.154000000000000E+01     0.852051282051282E+01    -0.818885204846630E+04    -0.900189246212662E+04     0.275806431282867E+04     0.985885168282296E+04     0.000000000000000E+00    -0.580750973496653E+04    -0.113832347756264E+05
     0.132000000000000E+01     0.874358974358974E+01    -0.846202984537264E+04    -0.450320692829418E+04     0.237322579307882E+04     0.840685150997112E+04     0.000000000000000E+00    -0.339226721146013E+04    -0.957296956220669E+04
     0.624000000000000E+01     0.433333333333333E+01    -0.143103155164700E+05    -0.858454164603047E+05     0.658179378955835E+04     0.804717695263324E+05     0.000000000000000E+00    -0.137097800303743E+05    -0.864459519464003E+05
     0.600000000000000E+01     0.455384615384615E+01    -0.137041101815493E+05    -0.819517824303056E+05     0.657626865580848E+04     0.768801856896367E+05     0.000000000000000E+00    -0.130762053239740E+05    -0.825796872878809E+05
     0.576000000000000E+01     0.477435897435897E+01    -0.131185721503423E+05    -0.780471644667144E+05     0.655935607352981E+04     0.732711738316641E+05     0.000000000000000E+00    -0.124625470971366E+05    -0.787031895199201E+05
     0.552000000000000E+01     0.499487179487179E+01    -0.125546260406955E+05    -0.741307204340971E+05     0.652878314025285E+04     0.696431899168892E+05     0.000000000000000E+00    -0.118700047855677E+05    -0.748153416892249E+05
     0.528000000000000E+01     0.521538461538461E+01    -0.120131978299519E+05    -0.702015186515614E+05     0.648236563243737E+04     0.659946104173714E+05     0.000000000000000E+00    -0.112997881586073E+05    -0.709149283229060E+05
     0.504000000000000E+01     0.543589743589744E+01    -0.114952976889796E+05    -0.662585262188063E+05     0.641803607748350E+04     0.623237213555473E+05     0.000000000000000E+00    -0.107531855499402E+05    -0.670006383578456E+05
     0.480000000000000E+01     0.565641025641026E+01    -0.110021028161996E+05    -0.623005973421697E+05     0.633387182574278E+04     0.586287209054999E+05     0.000000000000000E+00    -0.102316260559727E+05    -0.630710741023967E+05
     0.456000000000000E+01     0.587692307692308E+01    -0.105350402716149E+05    -0.583264616606778E+05     0.622812312252921E+04     0.549077420203305E+05     0.000000000000000E+00    -0.973673332571108E+04    -0.591247686065816E+05
     0.432000000000000E+01     0.609743589743590E+01    -0.100958698108381E+05    -0.543347125720925E+05     0.609924118013034E+04     0.511589055992438E+05     0.000000000000000E+00    -0.927036702102738E+04    -0.551602153619032E+05
     0.408000000000000E+01     0.631794871794872E+01    -0.968676671912039E+04    -0.503237955589604E+05     0.594590624981830E+04     0.473804219517432E+05     0.000000000000000E+00    -0.883464512204446E+04    -0.511759171560363E+05
     0.384000000000000E+01     0.653846153846154E+01    -0.931040464537967E+04    -0.462919965146616E+05     0.576705569386091E+04     0.435707717479095E+05     0.000000000000000E+00    -0.843193457243459E+04    -0.471704665876067E+05
     0.360000000000000E+01     0.675897435897436E+01    -0.897003843622887E+04    -0.422374300694577E+05     0.556191205753269E+04     0.397290235779382E+05     0.000000000000000E+00    -0.806478610150355E+04    -0.431426824041830E+05
     0.336000000000000E+01     0.697948717948718E+01    -0.866958697000442E+04    -0.381580279165400E+05     0.533001114112595E+04     0.358553977439548E+05     0.000000000000000E+00    -0.773576368364277E+04    -0.390918512029017E+05
     0.312000000000000E+01     0.720000000000000E+01    -0.841371599079458E+04    -0.340515271380789E+05     0.507123007196186E+04     0.319522982294663E+05     0.000000000000000E+00    -0.744705974967111E+04    -0.350181833792024E+05
     0.288000000000000E+01     0.742051282051282E+01    -0.820792094246783E+04    -0.299154585312714E+05     0.478581537640149E+04     0.280262911067925E+05     0.000000000000000E+00    -0.719963570481720E+04    -0.309237437689221E+05
     0.264000000000000E+01     0.764102564102564E+01    -0.805860980270120E+04    -0.257471349343903E+05     0.447441105185687E+04     0.240921376820547E+05     0.000000000000000E+00    -0.699119568926600E+04    -0.268145490478255E+05
     0.240000000000000E+01     0.786153846153846E+01    -0.797318591700870E+04    -0.215436395528320E+05     0.413808663880212E+04     0.201816733314282E+05     0.000000000000000E+00    -0.681089337346296E+04    -0.227059320963777E+05
     0.216000000000000E+01     0.808205128205128E+01    -0.796013083276963E+04    -0.173018142851656E+05     0.377836529278440E+04     0.163652035714843E+05     0.000000000000000E+00    -0.662324364390246E+04    -0.186387014740327E+05
     0.192000000000000E+01     0.830256410256410E+01    -0.802908713325699E+04    -0.130182480491809E+05     0.339725185643508E+04     0.128078231984348E+05     0.000000000000000E+00    -0.630890166209581E+04    -0.147384335203421E+05
     0.168000000000000E+01     0.852307692307692E+01    -0.819094127166585E+04    -0.868926510793727E+04     0.299726093148072E+04     0.991828140924564E+04     0.000000000000000E+00    -0.543250368973017E+04    -0.114477026898730E+05
     0.144000000000000E+01     0.874358974358974E+01    -0.845790640514169E+04    -0.431091339581151E+04     0.258144495075419E+04     0.858198270466689E+04     0.000000000000000E+00    -0.307333065216003E+04    -0.969548914879317E+04
     0.676000000000000E+01     0.438461538461538E+01    -0.144741613861362E+05    -0.819911610317662E+05     0.682679203554757E+04     0.767144954141544E+05     0.000000000000000E+00    -0.137908058613713E+05    -0.826745165565311E+05
     0.650000000000000E+01     0.460256410256410E+01    -0.138799348034270E+05    -0.783141122773521E+05     0.684548567057342E+04     0.733439842218656E+05     0.000000000000000E+00    -0.131606989009987E+05    -0.790333481797804E+05
     0.624000000000000E+01     0.482051282051282E+01    -0.133007167200108E+05    -0.746244636356924E+05     0.685073634922949E+04     0.699568334943744E+05     0.000000000000000E+00    -0.125447119479122E+05    -0.753804684077909E+05
     0.598000000000000E+01     0.503846153846154E+01    -0.127380144226820E+05    -0.709210910178083E+05     0.684011672511749E+04     0.665509269114354E+05     0.000000000000000E+00    -0.119446937222205E+05    -0.717144117182698E+05
     0.572000000000000E+01     0.525641025641026E+01    -0.121933824046772E+05    -0.672027695979555E+05     0.681128628293144E+04     0.631240256180279E+05     0.000000000000000E+00    -0.113625542896370E+05    -0.680335977129957E+05
     0.546000000000000E+01     0.547435897435897E+01    -0.116684910576601E+05    -0.634681619056925E+05     0.676202279346043E+04     0.596737667353505E+05     0.000000000000000E+00    -0.108003152135525E+05    -0.643363377498001E+05
     0.520000000000000E+01     0.569230769230769E+01    -0.111651953637066E+05    -0.597158059179490E+05     0.669025376859135E+04     0.561976770963823E+05     0.000000000000000E+00    -0.102601523154853E+05    -0.606208489661703E+05
     0.494000000000000E+01     0.591025641025641E+01    -0.106856035872900E+05    -0.559441031510946E+05     0.659408791631158E+04     0.526932090352268E+05     0.000000000000000E+00    -0.974442823217423E+04    -0.568852785062104E+05
     0.468000000000000E+01     0.612820512820513E+01    -0.102321459672657E+05    -0.521513067530068E+05     0.647184659571174E+04     0.491578093402921E+05     0.000000000000000E+00    -0.925571011735349E+04    -0.531277426029190E+05
     0.442000000000000E+01     0.634615384615385E+01    -0.980764340885686E+04    -0.483355095951394E+05     0.632209527198840E+04     0.455890401395652E+05     0.000000000000000E+00    -0.879676437351907E+04    -0.493463886304771E+05
     0.416000000000000E+01     0.656410256410256E+01    -0.941537617563897E+04    -0.444946323645908E+05     0.614367497144679E+04     0.419847846575857E+05     0.000000000000000E+00    -0.837051353597555E+04    -0.455394950042542E+05
     0.390000000000000E+01     0.678205128205128E+01    -0.905915258152520E+04    -0.406264116561725E+05     0.593573373650357E+04     0.383435980639666E+05     0.000000000000000E+00    -0.797992659666216E+04    -0.417056376410355E+05
     0.364000000000000E+01     0.700000000000000E+01    -0.874337768275136E+04    -0.367283880644780E+05     0.569775808068948E+04     0.346653186344785E+05     0.000000000000000E+00    -0.762778409638929E+04    -0.378439816508401E+05
     0.338000000000000E+01     0.721794871794872E+01    -0.847312196986103E+04    -0.327978942759500E+05     0.542960444365212E+04     0.309521714834579E+05     0.000000000000000E+00    -0.731618977134206E+04    -0.339548264744690E+05
     0.312000000000000E+01     0.743589743589744E+01    -0.825419005969065E+04    -0.288320431609495E+05     0.513153064615865E+04     0.272108622177627E+05     0.000000000000000E+00    -0.704552484783726E+04    -0.300407083728028E+05
     0.286000000000000E+01     0.765384615384615E+01    -0.809318938735452E+04    -0.248277158658242E+05     0.480422734509852E+04     0.234568025136915E+05     0.000000000000000E+00    -0.681204889861223E+04    -0.261088563545665E+05
     0.260000000000000E+01     0.787179487179487E+01    -0.799759889822996E+04    -0.207815499049770E+05     0.444884948848618E+04     0.197233032040801E+05     0.000000000000000E+00    -0.660178828442417E+04    -0.221773605187828E+05
     0.234000000000000E+01     0.808974358974359E+01    -0.797583773994236E+04    -0.166899272529336E+05     0.406704777046381E+04     0.160833497879940E+05     0.000000000000000E+00    -0.637262104434205E+04    -0.182931439485339E+05
     0.208000000000000E+01     0.830769230769231E+01    -0.803733395435022E+04    -0.125489624364117E+05     0.366100008630403E+04     0.127052649849557E+05     0.000000000000000E+00    -0.599295988299798E+04    -0.145933365077640E+05
     0.182000000000000E+01     0.852564102564103E+01    -0.819259316953030E+04    -0.835449062638902E+04     0.323344298741266E+04     0.999182737469685E+04     0.000000000000000E+00    -0.503908580002256E+04    -0.115079979958968E+05
     0.156000000000000E+01     0.874358974358974E+01    -0.845326729176264E+04    -0.410205573017141E+04     0.278770313633140E+04     0.877055767414515E+04     0.000000000000000E+00    -0.274148429683547E+04    -0.981383872509858E+04
     0.728000000000000E+01     0.443589743589744E+01    -0.146396033053518E+05    -0.779557654269769E+05     0.699684031121848E+04     0.727808023454674E+05     0.000000000000000E+00    -0.138756259676963E+05    -0.787197427646323E+05
     0.700000000000000E+01     0.465128205128205E+01    -0.140577193409515E+05    -0.745026904318271E+05     0.704513173063071E+04     0.696407501806164E+05     0.000000000000000E+00    -0.132474397236434E+05    -0.753129700491352E+05
     0.672000000000000E+01     0.486666666666667E+01    -0.134851237787482E+05    -0.710358294825330E+05     0.707787052498548E+04     0.664853324712077E+05     0.000000000000000E+00    -0.126274345505677E+05    -0.718935187107135E+05
     0.644000000000000E+01     0.508205128205128E+01    -0.129238957284344E+05    -0.675537279468251E+05     0.709244792928051E+04     0.633118026686176E+05     0.000000000000000E+00    -0.120181197893838E+05    -0.684595038858758E+05
     0.616000000000000E+01     0.529743589743590E+01    -0.123762115648905E+05    -0.640548164704587E+05     0.708634084805994E+04     0.601172424951369E+05     0.000000000000000E+00    -0.114221234546768E+05    -0.650089045806723E+05
     0.588000000000000E+01     0.551282051282051E+01    -0.118443991024556E+05    -0.605373990994853E+05     0.705714688452977E+04     0.568985705507543E+05     0.000000000000000E+00    -0.108422229160587E+05    -0.615395752858822E+05
     0.560000000000000E+01     0.572820512820513E+01    -0.113309917691998E+05    -0.569996414025269E+05     0.700261936967336E+04     0.536525680747952E+05     0.000000000000000E+00    -0.102813665802754E+05    -0.580492665914512E+05
     0.532000000000000E+01     0.594358974358974E+01    -0.108387827811960E+05    -0.534395585930471E+05     0.692070239136685E+04     0.503759290937075E+05     0.000000000000000E+00    -0.974268331671521E+04    -0.545356580575279E+05
     0.504000000000000E+01     0.615897435897436E+01    -0.103708793167915E+05    -0.498550036516245E+05     0.680956582349461E+04     0.470653467087119E+05     0.000000000000000E+00    -0.922947421158673E+04    -0.509964087568292E+05
     0.476000000000000E+01     0.637435897435897E+01    -0.993075669087995E+04    -0.462436554482252E+05     0.666764035506475E+04     0.437176553651712E+05     0.000000000000000E+00    -0.874517717016383E+04    -0.474292349689413E+05
     0.448000000000000E+01     0.658974358974359E+01    -0.952231252917295E+04    -0.426030068644755E+05     0.649365251932448E+04     0.403300638838689E+05     0.000000000000000E+00    -0.829328695977583E+04    -0.438320324338726E+05
     0.420000000000000E+01     0.680512820512820E+01    -0.914992094247201E+04    -0.389303529159344E+05     0.628665972287567E+04     0.369005426976764E+05     0.000000000000000E+00    -0.787719714082521E+04    -0.402030767175812E+05
     0.392000000000000E+01     0.702051282051282E+01    -0.881848670094027E+04    -0.352227788743663E+05     0.604608527479023E+04     0.334284862610246E+05     0.000000000000000E+00    -0.749989560096241E+04    -0.365413699743441E+05
     0.364000000000000E+01     0.723589743589744E+01    -0.853349940837432E+04    -0.314771483900134E+05     0.577175341572560E+04     0.299158932380763E+05     0.000000000000000E+00    -0.716336553451649E+04    -0.328472822638713E+05
     0.336000000000000E+01     0.745128205128205E+01    -0.830108767647593E+04    -0.276900916138688E+05     0.546392434704019E+04     0.263695801967181E+05     0.000000000000000E+00    -0.686734460423093E+04    -0.291238346861138E+05
     0.308000000000000E+01     0.766666666666667E+01    -0.812807329912392E+04    -0.238579933199488E+05     0.512332925990885E+04     0.228056004185905E+05     0.000000000000000E+00    -0.660654841524153E+04    -0.253795182038312E+05
     0.280000000000000E+01     0.788205128205128E+01    -0.802202542664587E+04    -0.199769810275657E+05     0.475120536443831E+04     0.192587297196861E+05     0.000000000000000E+00    -0.636378497208494E+04    -0.216352214821266E+05
     0.252000000000000E+01     0.809743589743590E+01    -0.799131474008998E+04    -0.160429131236000E+05     0.434933091878266E+04     0.158045007188201E+05     0.000000000000000E+00    -0.609058555737364E+04    -0.179436423063164E+05
     0.224000000000000E+01     0.831282051282051E+01    -0.804516762549680E+04    -0.120513669847739E+05     0.392006025825876E+04     0.126137035838129E+05     0.000000000000000E+00    -0.564607685549010E+04    -0.144504577547806E+05
     0.196000000000000E+01     0.852820512820513E+01    -0.819372034817107E+04    -0.799762709992286E+04     0.346635882446175E+04     0.100804614461592E+05     0.000000000000000E+00    -0.462792854303583E+04    -0.115634189050581E+05
     0.168000000000000E+01     0.874358974358974E+01    -0.844807322695347E+04    -0.387667319226908E+04     0.299183819438046E+04     0.897225749889236E+04     0.000000000000000E+00    -0.239733398662411E+04    -0.992741243259844E+04
     0.780000000000000E+01     0.448717948717949E+01    -0.147987115358745E+05    -0.737489635368293E+05     0.708643955642061E+04     0.686816913390151E+05     0.000000000000000E+00    -0.139588135658712E+05    -0.745888615068326E+05
     0.750000000000000E+01     0.470000000000000E+01    -0.142302439928724E+05    -0.705258601175818E+05     0.716989423030137E+04     0.657800786101852E+05     0.000000000000000E+00    -0.133314260551412E+05    -0.714246780553131E+05
     0.720000000000000E+01     0.491282051282051E+01    -0.136652738556961E+05    -0.672883609205700E+05     0.723568954756295E+04     0.628650535300312E+05     0.000000000000000E+00    -0.127060761337036E+05    -0.682475586425626E+05
     0.690000000000000E+01     0.512564102564103E+01    -0.131064329717420E+05    -0.640346236657889E+05     0.728099636006438E+04     0.599331697334740E+05     0.000000000000000E+00    -0.120859467695400E+05    -0.650551098679908E+05
     0.660000000000000E+01     0.533846153846154E+01    -0.125565059392767E+05    -0.607626744101984E+05     0.730307169834521E+04     0.569807522717838E+05     0.000000000000000E+00    -0.114744055239772E+05    -0.618447748254979E+05
     0.630000000000000E+01     0.555128205128205E+01    -0.120184693250593E+05    -0.574703960163396E+05     0.729929754395324E+04     0.540039171308563E+05     0.000000000000000E+00    -0.108750138545125E+05    -0.586138514868865E+05
     0.600000000000000E+01     0.576410256410256E+01    -0.114955308819631E+05    -0.541555166209496E+05     0.726721960177221E+04     0.509986101694592E+05     0.000000000000000E+00    -0.102915255142811E+05    -0.553595219886315E+05
     0.570000000000000E+01     0.597692307692308E+01    -0.109911687665968E+05    -0.508155981035773E+05     0.720458607234951E+04     0.479606731413332E+05     0.000000000000000E+00    -0.972787037216620E+04    -0.520788964980079E+05
     0.540000000000000E+01     0.618974358974359E+01    -0.105091707569271E+05    -0.474480245552000E+05     0.710938642422387E+04     0.448859492274193E+05     0.000000000000000E+00    -0.918811748726815E+04    -0.487690778248589E+05
     0.510000000000000E+01     0.640256410256410E+01    -0.100536734699000E+05    -0.440499907468377E+05     0.697989016625311E+04     0.417704490269605E+05     0.000000000000000E+00    -0.867640656686068E+04    -0.454272576498770E+05
     0.480000000000000E+01     0.661538461538461E+01    -0.962920157906264E+04    -0.406184905981695E+05     0.681468561994180E+04     0.386106136705013E+05     0.000000000000000E+00    -0.819682778721178E+04    -0.420508643900204E+05
     0.450000000000000E+01     0.682820512820513E+01    -0.924070703218521E+04    -0.371503056461497E+05     0.661271869176898E+04     0.354037417643139E+05     0.000000000000000E+00    -0.775321142569611E+04    -0.386378012526388E+05
     0.420000000000000E+01     0.704102564102564E+01    -0.889360826888264E+04    -0.336419935136224E+05     0.637333164551588E+04     0.321487068590278E+05     0.000000000000000E+00    -0.734874922387060E+04    -0.351868525586344E+05
     0.390000000000000E+01     0.725384615384615E+01    -0.859382943823636E+04    -0.300898763779378E+05     0.609630187459360E+04     0.288472180475342E+05     0.000000000000000E+00    -0.698527955401212E+04    -0.316984262621621E+05
     0.360000000000000E+01     0.746666666666667E+01    -0.834783961641618E+04    -0.264900294395681E+05     0.578188067437085E+04     0.255061561426437E+05     0.000000000000000E+00    -0.666184816469271E+04    -0.281760208912915E+05
     0.330000000000000E+01     0.767948717948718E+01    -0.816269202430199E+04    -0.228382693907225E+05     0.543083201450163E+04     0.221421800993378E+05     0.000000000000000E+00    -0.637156625237661E+04    -0.246293951626479E+05
     0.300000000000000E+01     0.789230769230769E+01    -0.804606324510558E+04    -0.191301428839633E+05     0.504447131125294E+04     0.187914670370085E+05     0.000000000000000E+00    -0.609404567416245E+04    -0.210821604549065E+05
     0.270000000000000E+01     0.810512820512821E+01    -0.800629244199241E+04    -0.153609150008217E+05     0.462470419983248E+04     0.155318420499261E+05     0.000000000000000E+00    -0.577509230298208E+04    -0.175921151398321E+05
     0.240000000000000E+01     0.831794871794872E+01    -0.805242057570341E+04    -0.115255577204128E+05     0.417406530671639E+04     0.125355408066214E+05     0.000000000000000E+00    -0.526809414914215E+04    -0.143098841469741E+05
     0.210000000000000E+01     0.853076923076923E+01    -0.819422962217675E+04    -0.761873838805238E+04     0.369575702197692E+04     0.101851235554618E+05     0.000000000000000E+00    -0.419954220551342E+04    -0.116134258047157E+05
     0.180000000000000E+01     0.874358974358974E+01    -0.844228179016961E+04    -0.363480818387118E+04     0.319368827161012E+04     0.918677373975060E+04     0.000000000000000E+00    -0.204134654373114E+04    -0.100357434303096E+05
     0.832000000000000E+01     0.453846153846154E+01    -0.149425496849808E+05    -0.693814662575388E+05     0.709032901952809E+04     0.644294182899357E+05     0.000000000000000E+00    -0.140342338857826E+05    -0.702897820567370E+05
     0.800000000000000E+01     0.474871794871795E+01    -0.143894183279715E+05    -0.663928032041469E+05     0.721464265083655E+04     0.617726400891900E+05     0.000000000000000E+00    -0.134070584717100E+05    -0.673751630604085E+05
     0.768000000000000E+01     0.495897435897436E+01    -0.138338996723011E+05    -0.633898722342678E+05     0.731926103987772E+04     0.591053152922887E+05     0.000000000000000E+00    -0.127754739285765E+05    -0.644482979779923E+05
     0.736000000000000E+01     0.516923076923077E+01    -0.132791516342647E+05    -0.603703766916529E+05     0.740108210702042E+04     0.564232125350577E+05     0.000000000000000E+00    -0.121433564699958E+05    -0.615061718559218E+05
     0.704000000000000E+01     0.537948717948718E+01    -0.127285470321263E+05    -0.573318682359573E+05     0.745709327631590E+04     0.537218052943886E+05     0.000000000000000E+00    -0.115148444487813E+05    -0.585455708193024E+05
     0.672000000000000E+01     0.558974358974359E+01    -0.121856973404399E+05    -0.542717360263545E+05     0.748441412975889E+04     0.509963034564948E+05     0.000000000000000E+00    -0.108943235209715E+05    -0.555631098458229E+05
     0.640000000000000E+01     0.580000000000000E+01    -0.116544764443714E+05    -0.511871959051504E+05     0.748033906154865E+04     0.482417070004974E+05     0.000000000000000E+00    -0.102863986504999E+05    -0.525552736990219E+05
     0.608000000000000E+01     0.601025641025641E+01    -0.111390443940209E+05    -0.480752795813986E+05     0.744237993235006E+04     0.454528899026429E+05     0.000000000000000E+00    -0.969584895938926E+04    -0.495184750160302E+05
     0.576000000000000E+01     0.622051282051282E+01    -0.106438711587442E+05    -0.449328238145146E+05     0.736830872355464E+04     0.426247273545150E+05     0.000000000000000E+00    -0.912755859647182E+04    -0.464491363767869E+05
     0.544000000000000E+01     0.643076923076923E+01    -0.101737603814745E+05    -0.417564595978904E+05     0.725620019154158E+04     0.397522883338990E+05     0.000000000000000E+00    -0.858641142884719E+04    -0.433438085505177E+05
     0.512000000000000E+01     0.664102564102564E+01    -0.973387313304475E+04    -0.385426013425097E+05     0.710447452193885E+04     0.368311320411275E+05     0.000000000000000E+00    -0.807712695565215E+04    -0.401993475199023E+05
     0.480000000000000E+01     0.685128205128205E+01    -0.932975166650902E+04    -0.352874360605614E+05     0.691193998388420E+04     0.338577780947972E+05     0.000000000000000E+00    -0.760399393303303E+04    -0.370131937940374E+05
     0.448000000000000E+01     0.706153846153846E+01    -0.896734317146458E+04    -0.319869125490554E+05     0.667783558428623E+04     0.308304826498873E+05     0.000000000000000E+00    -0.717041407836821E+04    -0.337838416421518E+05
     0.416000000000000E+01     0.727179487179487E+01    -0.865302352837367E+04    -0.286367305734364E+05     0.640187372208545E+04     0.277505821948139E+05     0.000000000000000E+00    -0.677806939386219E+04    -0.305116847079479E+05
     0.384000000000000E+01     0.748205128205128E+01    -0.839362106288537E+04    -0.252323300511990E+05     0.608428284251533E+04     0.246249513806568E+05     0.000000000000000E+00    -0.642528920222741E+04    -0.272006619118569E+05
     0.352000000000000E+01     0.769230769230769E+01    -0.819644030015741E+04    -0.217688802355016E+05     0.572585009136333E+04     0.214707831914997E+05     0.000000000000000E+00    -0.610357581511722E+04    -0.238617447205418E+05
     0.320000000000000E+01     0.790256410256410E+01    -0.806928571917809E+04    -0.182412688987821E+05     0.532796396923198E+04     0.183255246201325E+05     0.000000000000000E+00    -0.578951119071577E+04    -0.205210434272445E+05
     0.288000000000000E+01     0.811282051282051E+01    -0.802048550708803E+04    -0.146440915163718E+05     0.489265698579990E+04     0.152688950968903E+05     0.000000000000000E+00    -0.542414738932503E+04    -0.172404296341348E+05
     0.256000000000000E+01     0.832307692307692E+01    -0.805891531350207E+04    -0.109716404501096E+05     0.442264831408289E+04     0.124732891928806E+05     0.000000000000000E+00    -0.485901220635124E+04    -0.141715435572604E+05
     0.224000000000000E+01     0.853333333333333E+01    -0.819402200483111E+04    -0.721789413195782E+04     0.392138644469495E+04     0.103067077146835E+05     0.000000000000000E+00    -0.375431561813567E+04    -0.116576005186533E+05
     0.192000000000000E+01     0.874358974358974E+01    -0.843584741860393E+04    -0.337650624761588E+04     0.339309184010936E+04     0.941381119969778E+04     0.000000000000000E+00    -0.167388365960096E+04    -0.101384700066188E+05
     0.884000000000000E+01     0.458974358974359E+01    -0.150611356318003E+05    -0.648649782765351E+05     0.700351434035719E+04     0.600375767091324E+05     0.000000000000000E+00    -0.140950284506082E+05    -0.658310854577272E+05
     0.850000000000000E+01     0.479743589743590E+01    -0.145262495900894E+05    -0.621135538520297E+05     0.717445179007370E+04     0.576302593137043E+05     0.000000000000000E+00    -0.134681283393125E+05    -0.631716751028066E+05
     0.816000000000000E+01     0.500512820512821E+01    -0.139829606696298E+05    -0.593489040709461E+05     0.732380837043140E+04     0.552164533381266E+05     0.000000000000000E+00    -0.128299223388322E+05    -0.605019424017437E+05
     0.782000000000000E+01     0.521282051282051E+01    -0.134349193999762E+05    -0.565682003800868E+05     0.744814126747930E+04     0.527910367945007E+05     0.000000000000000E+00    -0.121850134737216E+05    -0.578181063063414E+05
     0.748000000000000E+01     0.542051282051282E+01    -0.128860612790091E+05    -0.537684393596485E+05     0.754410462365590E+04     0.503485132423139E+05     0.000000000000000E+00    -0.115383603991252E+05    -0.551161402395324E+05
     0.714000000000000E+01     0.562820512820513E+01    -0.123406144856763E+05    -0.509464330433568E+05     0.760849617373872E+04     0.478830571099457E+05     0.000000000000000E+00    -0.108952341807236E+05    -0.523918133483096E+05
     0.680000000000000E+01     0.583589743589744E+01    -0.118031075927339E+05    -0.480987992386032E+05     0.763830388079382E+04     0.453885843915914E+05     0.000000000000000E+00    -0.102611592524896E+05    -0.496407475788475E+05
     0.646000000000000E+01     0.604358974358974E+01    -0.112783772794875E+05    -0.452219518465797E+05     0.763075257212523E+04     0.428588572302538E+05     0.000000000000000E+00    -0.964183448172508E+04    -0.468584946443422E+05
     0.612000000000000E+01     0.625128205128205E+01    -0.107715760445340E+05    -0.423120911824142E+05     0.758335057522450E+04     0.402876360783027E+05     0.000000000000000E+00    -0.904302709024311E+04    -0.440406401367050E+05
     0.578000000000000E+01     0.645897435897436E+01    -0.102881799185021E+05    -0.393651942953067E+05     0.749393635372019E+04     0.376689024624641E+05     0.000000000000000E+00    -0.847042612400143E+04    -0.411829480898074E+05
     0.544000000000000E+01     0.666666666666667E+01    -0.983399617679444E+04    -0.363770052886644E+05     0.736072514332734E+04     0.349971925667131E+05     0.000000000000000E+00    -0.792943049653803E+04    -0.382815709689208E+05
     0.510000000000000E+01     0.687435897435897E+01    -0.941517105232818E+04    -0.333430256402372E+05     0.718235558779704E+04     0.322681144530292E+05     0.000000000000000E+00    -0.742482344270604E+04    -0.353333732498593E+05
     0.476000000000000E+01     0.708205128205128E+01    -0.903819744827663E+04    -0.302585045222538E+05     0.695793637486584E+04     0.294791859871610E+05     0.000000000000000E+00    -0.696023699321925E+04    -0.323364649773112E+05
     0.442000000000000E+01     0.728974358974359E+01    -0.870992265081046E+04    -0.271184291215566E+05     0.668709287220530E+04     0.266312629026158E+05     0.000000000000000E+00    -0.653720402622120E+04    -0.292911477461458E+05
     0.408000000000000E+01     0.749743589743590E+01    -0.843755604183893E+04    -0.239175149597376E+05     0.637001376337147E+04     0.237311130584042E+05     0.000000000000000E+00    -0.615334688671582E+04    -0.262017241148607E+05
     0.374000000000000E+01     0.770512820512821E+01    -0.822867681175125E+04    -0.206501962132738E+05     0.600749768375441E+04     0.207963463195251E+05     0.000000000000000E+00    -0.579862842062003E+04    -0.230802446044050E+05
     0.340000000000000E+01     0.791282051282051E+01    -0.809124167215779E+04    -0.173106160336628E+05     0.560099985652765E+04     0.178654649986599E+05     0.000000000000000E+00    -0.544693579410354E+04    -0.199549219117171E+05
     0.306000000000000E+01     0.812051282051282E+01    -0.803359256863139E+04    -0.138926168675587E+05     0.515267872859774E+04     0.150195234146065E+05     0.000000000000000E+00    -0.503586762869167E+04    -0.168903418074984E+05
     0.272000000000000E+01     0.832820512820513E+01    -0.806446439344863E+04    -0.103897307769067E+05     0.466544260655370E+04     0.124295431053222E+05     0.000000000000000E+00    -0.441897210287622E+04    -0.140352230674791E+05
     0.238000000000000E+01     0.853589743589744E+01    -0.819299269833113E+04    -0.679516975907964E+04     0.414299629261654E+04     0.104460490153675E+05     0.000000000000000E+00    -0.329254632786155E+04    -0.116956161295492E+05
     0.204000000000000E+01     0.874358974358974E+01    -0.842872140718677E+04    -0.310181606701319E+04     0.358988772058877E+04     0.965308994714448E+04     0.000000000000000E+00    -0.129522690595047E+04    -0.102353105682495E+05
     0.936000000000000E+01     0.464102564102564E+01    -0.151434024536505E+05    -0.602122148583542E+05     0.682129563308383E+04     0.555212200526780E+05     0.000000000000000E+00    -0.141336047619115E+05    -0.612220125500932E+05
     0.900000000000000E+01     0.484615384615385E+01    -0.146308110031512E+05    -0.576990121580119E+05     0.704462499209282E+04     0.533660333592970E+05     0.000000000000000E+00    -0.135078105092153E+05    -0.588220126519478E+05
     0.864000000000000E+01     0.505128205128205E+01    -0.141036175356853E+05    -0.551747344325063E+05     0.724472972274653E+04     0.512099435802106E+05     0.000000000000000E+00    -0.128631508751892E+05    -0.564152010930024E+05
     0.828000000000000E+01     0.525641025641026E+01    -0.135659258896050E+05    -0.526359316918812E+05     0.741774147210134E+04     0.490468058847166E+05     0.000000000000000E+00    -0.122050146711261E+05    -0.539968429103601E+05
     0.792000000000000E+01     0.546153846153846E+01    -0.130222041024470E+05    -0.500789527017920E+05     0.755990190835321E+04     0.468700043809082E+05     0.000000000000000E+00    -0.115392623271411E+05    -0.515618944770979E+05
     0.756000000000000E+01     0.566666666666667E+01    -0.124772754287943E+05    -0.474999369146846E+05     0.766761339044639E+04     0.446725139051542E+05     0.000000000000000E+00    -0.108721473078659E+05    -0.491050650356130E+05
     0.720000000000000E+01     0.587179487179487E+01    -0.119363093581368E+05    -0.448948064009755E+05     0.773748963768225E+04     0.424469912099578E+05     0.000000000000000E+00    -0.102102186153748E+05    -0.466208971437375E+05
     0.684000000000000E+01     0.607692307692308E+01    -0.114048126327320E+05    -0.422592577802314E+05     0.776640639932806E+04     0.401859043374724E+05     0.000000000000000E+00    -0.956020077294411E+04    -0.441038696400193E+05
     0.648000000000000E+01     0.628205128205128E+01    -0.108886202654665E+05    -0.395887541523488E+05     0.775155212422567E+04     0.378817142811221E+05     0.000000000000000E+00    -0.892884411904840E+04    -0.415485302987669E+05
     0.612000000000000E+01     0.648717948717949E+01    -0.103938865577163E+05    -0.368785170287338E+05     0.769047863040043E+04     0.355271327057751E+05     0.000000000000000E+00    -0.832273143666536E+04    -0.389496721497847E+05
     0.576000000000000E+01     0.669230769230769E+01    -0.992707611720815E+04    -0.341235182634817E+05     0.758115177466986E+04     0.331154973149767E+05     0.000000000000000E+00    -0.774801399762683E+04    -0.363025803830630E+05
     0.540000000000000E+01     0.689743589743590E+01    -0.949495487588030E+04    -0.313184719845568E+05     0.742200212225248E+04     0.306413401106372E+05     0.000000000000000E+00    -0.721002482091606E+04    -0.336034020395211E+05
     0.504000000000000E+01     0.710256410256410E+01    -0.910458110774349E+04    -0.284578265249720E+05     0.721197561637654E+04     0.281012895575952E+05     0.000000000000000E+00    -0.671266540708553E+04    -0.308497422256300E+05
     0.468000000000000E+01     0.730769230769231E+01    -0.876329644674187E+04    -0.255357563539685E+05     0.695058424788883E+04     0.254955815470470E+05     0.000000000000000E+00    -0.625735149256558E+04    -0.280417013081448E+05
     0.432000000000000E+01     0.751282051282051E+01    -0.847871690461389E+04    -0.225461540081955E+05     0.663795672486346E+04     0.228307391958741E+05     0.000000000000000E+00    -0.584105157678509E+04    -0.251838193360243E+05
     0.396000000000000E+01     0.771794871794872E+01    -0.825872388875329E+04    -0.194826220228900E+05     0.627488914221061E+04     0.201246164306942E+05     0.000000000000000E+00    -0.545234734567790E+04    -0.222889985659654E+05
     0.360000000000000E+01     0.792307692307692E+01    -0.811145522006997E+04    -0.163384648630560E+05     0.586289565128532E+04     0.174164591700130E+05     0.000000000000000E+00    -0.506294444996401E+04    -0.193869756331619E+05
     0.324000000000000E+01     0.812820512820513E+01    -0.804529615085092E+04    -0.131066808546452E+05     0.540425912949627E+04     0.147879273181316E+05     0.000000000000000E+00    -0.460854176911948E+04    -0.165434352363766E+05
     0.288000000000000E+01     0.833333333333333E+01    -0.806887038262122E+04    -0.977995411573563E+04     0.490208184991453E+04     0.124069419696945E+05     0.000000000000000E+00    -0.394823315787819E+04    -0.139005913404787E+05
     0.252000000000000E+01     0.853846153846154E+01    -0.819103108400490E+04    -0.635064648771173E+04     0.436033615088239E+04     0.106039121220765E+05     0.000000000000000E+00    -0.281446299220490E+04    -0.117272145795117E+05
     0.216000000000000E+01     0.874358974358974E+01    -0.842085190858586E+04    -0.281078946644455E+04     0.378391510562206E+04     0.990434667343241E+04     0.000000000000000E+00    -0.905596310934405E+03    -0.103260450640960E+05
     0.988000000000000E+01     0.469230769230769E+01    -0.151771593523719E+05    -0.554369186305296E+05     0.653929556916110E+04     0.508970561508008E+05     0.000000000000000E+00    -0.141416322903110E+05    -0.564724456925905E+05
     0.950000000000000E+01     0.489487179487179E+01    -0.146922100761929E+05    -0.531609578004478E+05     0.682071737687258E+04     0.489945207950204E+05     0.000000000000000E+00    -0.135186608837011E+05    -0.543345069929397E+05
     0.912000000000000E+01     0.509743589743590E+01    -0.141862067327228E+05    -0.508773896671569E+05     0.707761716480168E+04     0.470985994182648E+05     0.000000000000000E+00    -0.128682941629295E+05    -0.521953022369502E+05
     0.874000000000000E+01     0.530000000000000E+01    -0.136636623950774E+05    -0.485820399593520E+05     0.730559741042704E+04     0.452019573111574E+05     0.000000000000000E+00    -0.121968102163178E+05    -0.500488921381116E+05
     0.836000000000000E+01     0.550256410256410E+01    -0.131295439675877E+05    -0.462705036069924E+05     0.750039095184893E+04     0.432966674309099E+05     0.000000000000000E+00    -0.115111077699530E+05    -0.478889398046271E+05
     0.798000000000000E+01     0.570512820512820E+01    -0.125892457776017E+05    -0.439381388109704E+05     0.765791568619479E+04     0.413742932373459E+05     0.000000000000000E+00    -0.108185799053885E+05    -0.457088046831836E+05
     0.760000000000000E+01     0.590769230769231E+01    -0.120485631672868E+05    -0.415800611127810E+05     0.777432926802491E+04     0.394260060166475E+05     0.000000000000000E+00    -0.101269654877392E+05    -0.435016587923286E+05
     0.722000000000000E+01     0.611025641025641E+01    -0.115136660854320E+05    -0.391911374641912E+05     0.784608380773809E+04     0.374427454328224E+05     0.000000000000000E+00    -0.944417633642414E+04    -0.412606272131991E+05
     0.684000000000000E+01     0.631282051282051E+01    -0.109910726792500E+05    -0.367659802969102E+05     0.786998056997721E+04     0.354154374077405E+05     0.000000000000000E+00    -0.877809404902231E+04    -0.389789589271378E+05
     0.646000000000000E+01     0.651538461538462E+01    -0.104876228861792E+05    -0.342989415922584E+05     0.784322467203488E+04     0.333352933556197E+05     0.000000000000000E+00    -0.813632260938763E+04    -0.366502418690500E+05
     0.608000000000000E+01     0.671794871794872E+01    -0.100104520256863E+05    -0.317841069508378E+05     0.776347978225913E+04     0.311942331465106E+05     0.000000000000000E+00    -0.752586854814658E+04    -0.342686904283776E+05
     0.570000000000000E+01     0.692051282051282E+01    -0.956696439106806E+04    -0.292152896622003E+05     0.762892281845893E+04     0.289855086542091E+05     0.000000000000000E+00    -0.695269324821751E+04    -0.318295608050508E+05
     0.532000000000000E+01     0.712307692307692E+01    -0.916480684125374E+04    -0.265860247745184E+05     0.743829864630994E+04     0.267046714315799E+05     0.000000000000000E+00    -0.642102820656614E+04    -0.293298034092060E+05
     0.494000000000000E+01     0.732564102564103E+01    -0.881184239260712E+04    -0.238895631642546E+05     0.719097477776005E+04     0.243511618585758E+05     0.000000000000000E+00    -0.593223196111205E+04    -0.267691735957496E+05
     0.456000000000000E+01     0.752820512820513E+01    -0.851612381072882E+04    -0.211188656058305E+05     0.688699606943506E+04     0.219310765713095E+05     0.000000000000000E+00    -0.548272154290951E+04    -0.241522678736498E+05
     0.418000000000000E+01     0.773076923076923E+01    -0.828586720225833E+04    -0.182665968412971E+05     0.652713942104432E+04     0.194622765075676E+05     0.000000000000000E+00    -0.505995001264198E+04    -0.214925140309135E+05
     0.380000000000000E+01     0.793333333333333E+01    -0.812942560667630E+04    -0.153251196500035E+05     0.611296847378631E+04     0.169843334740521E+05     0.000000000000000E+00    -0.463411488634663E+04    -0.188204303703331E+05
     0.342000000000000E+01     0.813589743589744E+01    -0.805526258810664E+04    -0.122864889182673E+05     0.564688830875432E+04     0.145786217968020E+05     0.000000000000000E+00    -0.414068780953153E+04    -0.162010636968424E+05
     0.304000000000000E+01     0.833846153846154E+01    -0.807192582711877E+04    -0.914244570904394E+04     0.513220014534206E+04     0.124081260251098E+05     0.000000000000000E+00    -0.344714879764710E+04    -0.137672227385156E+05
     0.266000000000000E+01     0.854102564102564E+01    -0.818802071252973E+04    -0.588441133159600E+04     0.457315603964929E+04     0.107809817054395E+05     0.000000000000000E+00    -0.232024208151121E+04    -0.117521899626145E+05
     0.228000000000000E+01     0.874358974358974E+01    -0.841218393320638E+04    -0.250348141116300E+04     0.397501358288748E+04     0.101673354695558E+05     0.000000000000000E+00    -0.505164264382644E+03    -0.104105010799867E+05
     0.104000000000000E+02     0.474358974358974E+01    -0.151490525806625E+05    -0.505538763694843E+05     0.615348746023678E+04     0.461837753173669E+05     0.000000000000000E+00    -0.141100452437912E+05    -0.515928837063556E+05
     0.100000000000000E+02     0.494358974358974E+01    -0.146985569083879E+05    -0.485120636845614E+05     0.649855906994653E+04     0.445320601282935E+05     0.000000000000000E+00    -0.134926191625993E+05    -0.497180014303500E+05
     0.960000000000000E+01     0.514358974358974E+01    -0.142202150245650E+05    -0.464676554611391E+05     0.681827571846660E+04     0.428969010346236E+05     0.000000000000000E+00    -0.128378438044232E+05    -0.478500266812808E+05
     0.920000000000000E+01     0.534358974358974E+01    -0.137189016139594E+05    -0.444156356527449E+05     0.710758635642740E+04     0.412695598199402E+05     0.000000000000000E+00    -0.121530688599057E+05    -0.459814684067986E+05
     0.880000000000000E+01     0.554358974358974E+01    -0.132000464378780E+05    -0.423507247594140E+05     0.736159975618611E+04     0.396405478395363E+05     0.000000000000000E+00    -0.114464645497311E+05    -0.441043066475610E+05
     0.840000000000000E+01     0.574358974358974E+01    -0.126695896885242E+05    -0.402673766159247E+05     0.757564316805371E+04     0.379997380395744E+05     0.000000000000000E+00    -0.107268240836184E+05    -0.422101422208306E+05
     0.800000000000000E+01     0.594358974358974E+01    -0.121339373433542E+05    -0.381597751800331E+05     0.774532097652218E+04     0.363365180948887E+05     0.000000000000000E+00    -0.100033409563020E+05    -0.402903715670853E+05
     0.760000000000000E+01     0.614358974358974E+01    -0.115999165194330E+05    -0.360218313207089E+05     0.786657335649158E+04     0.346399926079278E+05     0.000000000000000E+00    -0.928536336060149E+04    -0.383363844795404E+05
     0.720000000000000E+01     0.634358974358974E+01    -0.110747308277899E+05    -0.338471796063708E+05     0.793573492949722E+04     0.328992476115676E+05     0.000000000000000E+00    -0.858212260354567E+04    -0.363397878306151E+05
     0.680000000000000E+01     0.654358974358974E+01    -0.105659157277754E+05    -0.316291750931217E+05     0.794959341993675E+04     0.311037007491349E+05     0.000000000000000E+00    -0.790242285265229E+04    -0.342926679682448E+05
     0.640000000000000E+01     0.674358974358974E+01    -0.100812938814161E+05    -0.293608901129840E+05     0.790544831129728E+04     0.292435793245119E+05     0.000000000000000E+00    -0.725426318167266E+04    -0.321879208127275E+05
     0.600000000000000E+01     0.694358974358974E+01    -0.962893050777155E+04    -0.270351110621349E+05     0.780116950238255E+04     0.273106035083993E+05     0.000000000000000E+00    -0.664433384622674E+04    -0.300197077236797E+05
     0.560000000000000E+01     0.714358974358974E+01    -0.921708873728959E+04    -0.246443351891421E+05     0.763525596354002E+04     0.252990189193642E+05     0.000000000000000E+00    -0.607727394108100E+04    -0.277841499853507E+05
     0.520000000000000E+01     0.734358974358974E+01    -0.885418496616273E+04    -0.221807673831983E+05     0.740689439288801E+04     0.232072546774170E+05     0.000000000000000E+00    -0.555446788014887E+04    -0.254804844692121E+05
     0.480000000000000E+01     0.754358974358974E+01    -0.854874421068390E+04    -0.196363169623580E+05     0.711601787254281E+04     0.210407521624543E+05     0.000000000000000E+00    -0.507192762755723E+04    -0.231131335454847E+05
     0.440000000000000E+01     0.774358974358974E+01    -0.830935546160252E+04    -0.170025944617712E+05     0.676336452484583E+04     0.188170748139613E+05     0.000000000000000E+00    -0.461631074143136E+04    -0.206956391819424E+05
     0.400000000000000E+01     0.794358974358974E+01    -0.814462703848043E+04    -0.142709084219201E+05     0.635053616859073E+04     0.165755989053688E+05     0.000000000000000E+00    -0.415708403811415E+04    -0.182584514222863E+05
     0.360000000000000E+01     0.814358974358974E+01    -0.806314194404786E+04    -0.114322621768532E+05     0.588005697525050E+04     0.143963930869233E+05     0.000000000000000E+00    -0.363110064970236E+04    -0.158643034711987E+05
     0.320000000000000E+01     0.834358974358974E+01    -0.807341321855942E+04    -0.847735064242178E+04     0.535543212520464E+04     0.124356857438707E+05     0.000000000000000E+00    -0.291614274864090E+04    -0.136346211123403E+05
     0.280000000000000E+01     0.854358974358975E+01    -0.818383929415004E+04    -0.539655710451462E+04     0.478120646396627E+04     0.109778551567658E+05     0.000000000000000E+00    -0.181002041613648E+04    -0.117703759825282E+05
     0.240000000000000E+01     0.874358974358974E+01    -0.840265934919098E+04    -0.217995000729340E+04     0.416302315840924E+04     0.104418281117651E+05     0.000000000000000E+00    -0.940660166174957E+02    -0.104885433398669E+05
 zone I=   21 ,j=   21 ,f=point, T="    1"
     0.104000000000000E+02     0.474358974358974E+01    -0.151490525806625E+05    -0.505538763694843E+05     0.615348746023678E+04     0.461837753173669E+05     0.000000000000000E+00    -0.141100452437912E+05    -0.515928837063556E+05
     0.100000000000000E+02     0.494358974358974E+01    -0.146985569083879E+05    -0.485120636845614E+05     0.649855906994653E+04     0.445320601282935E+05     0.000000000000000E+00    -0.134926191625993E+05    -0.497180014303500E+05
     0.960000000000000E+01     0.514358974358974E+01    -0.142202150245650E+05    -0.464676554611391E+05     0.681827571846660E+04     0.428969010346236E+05     0.000000000000000E+00    -0.128378438044232E+05    -0.478500266812808E+05
     0.920000000000000E+01     0.534358974358974E+01    -0.137189016139594E+05    -0.444156356527449E+05     0.710758635642740E+04     0.412695598199402E+05     0.000000000000000E+00    -0.121530688599057E+05    -0.459814684067986E+05
     0.880000000000000E+01     0.554358974358974E+01    -0.132000464378780E+05    -0.423507247594140E+05     0.736159975618611E+04     0.396405478395363E+05     0.000000000000000E+00    -0.114464645497311E+05    -0.441043066475610E+05
     0.840000000000000E+01     0.574358974358974E+01    -0.126695896885242E+05    -0.402673766159247E+05     0.757564316805371E+04     0.379997380395744E+05     0.000000000000000E+00    -0.107268240836184E+05    -0.422101422208306E+05
     0.800000000000000E+01     0.594358974358974E+01    -0.121339373433542E+05    -0.381597751800331E+05     0.774532097652218E+04     0.363365180948887E+05     0.000000000000000E+00    -0.100033409563020E+05    -0.402903715670853E+05
     0.760000000000000E+01     0.614358974358974E+01    -0.115999165194330E+05    -0.360218313207089E+05     0.786657335649158E+04     0.346399926079278E+05     0.000000000000000E+00    -0.928536336060149E+04    -0.383363844795404E+05
     0.720000000000000E+01     0.634358974358974E+01    -0.110747308277899E+05    -0.338471796063708E+05     0.793573492949722E+04     0.328992476115676E+05     0.000000000000000E+00    -0.858212260354567E+04    -0.363397878306151E+05
     0.680000000000000E+01     0.654358974358974E+01    -0.105659157277754E+05    -0.316291750931217E+05     0.794959341993675E+04     0.311037007491349E+05     0.000000000000000E+00    -0.790242285265229E+04    -0.342926679682448E+05
     0.640000000000000E+01     0.674358974358974E+01    -0.100812938814161E+05    -0.293608901129840E+05     0.790544831129728E+04     0.292435793245119E+05     0.000000000000000E+00    -0.725426318167266E+04    -0.321879208127275E+05
     0.600000000000000E+01     0.694358974358974E+01    -0.962893050777155E+04    -0.270351110621349E+05     0.780116950238255E+04     0.273106035083993E+05     0.000000000000000E+00    -0.664433384622674E+04    -0.300197077236797E+05
     0.560000000000000E+01     0.714358974358974E+01    -0.921708873728959E+04    -0.246443351891421E+05     0.763525596354002E+04     0.252990189193642E+05     0.000000000000000E+00    -0.607727394108100E+04    -0.277841499853507E+05
     0.520000000000000E+01     0.734358974358974E+01    -0.885418496616273E+04    -0.221807673831983E+05     0.740689439288801E+04     0.232072546774170E+05     0.000000000000000E+00    -0.555446788014887E+04    -0.254804844692121E+05
     0.480000000000000E+01     0.754358974358974E+01    -0.854874421068390E+04    -0.196363169623580E+05     0.711601787254281E+04     0.210407521624543E+05     0.000000000000000E+00    -0.507192762755723E+04    -0.231131335454847E+05
     0.440000000000000E+01     0.774358974358974E+01    -0.830935546160252E+04    -0.170025944617712E+05     0.676336452484583E+04     0.188170748139613E+05     0.000000000000000E+00    -0.461631074143136E+04    -0.206956391819424E+05
     0.400000000000000E+01     0.794358974358974E+01    -0.814462703848043E+04    -0.142709084219201E+05     0.635053616859073E+04     0.165755989053688E+05     0.000000000000000E+00    -0.415708403811415E+04    -0.182584514222863E+05
     0.360000000000000E+01     0.814358974358974E+01    -0.806314194404786E+04    -0.114322621768532E+05     0.588005697525050E+04     0.143963930869233E+05     0.000000000000000E+00    -0.363110064970236E+04    -0.158643034711987E+05
     0.320000000000000E+01     0.834358974358974E+01    -0.807341321855942E+04    -0.847735064242178E+04     0.535543212520464E+04     0.124356857438707E+05     0.000000000000000E+00    -0.291614274864090E+04    -0.136346211123403E+05
     0.280000000000000E+01     0.854358974358975E+01    -0.818383929415004E+04    -0.539655710451462E+04     0.478120646396627E+04     0.109778551567658E+05     0.000000000000000E+00    -0.181002041613648E+04    -0.117703759825282E+05
     0.240000000000000E+01     0.874358974358974E+01    -0.840265934919098E+04    -0.217995000729340E+04     0.416302315840924E+04     0.104418281117651E+05     0.000000000000000E+00    -0.940660166174957E+02    -0.104885433398669E+05
     0.105300000000000E+02     0.475641025641026E+01    -0.151306809046135E+05    -0.493181140888939E+05     0.604037920740829E+04     0.449939526795978E+05     0.000000000000000E+00    -0.140948269584949E+05    -0.503539680350124E+05
     0.101250000000000E+02     0.495891025641026E+01    -0.146835929101713E+05    -0.472576776019821E+05     0.640256665926514E+04     0.433354597619073E+05     0.000000000000000E+00    -0.134703321671685E+05    -0.484709383449849E+05
     0.972000000000000E+01     0.516141025641026E+01    -0.142068514000222E+05    -0.451968001263393E+05     0.673967930864103E+04     0.416983330213708E+05     0.000000000000000E+00    -0.128045624433924E+05    -0.465990890829691E+05
     0.931500000000000E+01     0.536391025641026E+01    -0.137054736493844E+05    -0.431303098403400E+05     0.704638725874674E+04     0.400736450809235E+05     0.000000000000000E+00    -0.121051108778128E+05    -0.447306726119115E+05
     0.891000000000000E+01     0.556641025641026E+01    -0.131850841403997E+05    -0.410527540748730E+05     0.731752409960756E+04     0.384516517342766E+05     0.000000000000000E+00    -0.113804974636936E+05    -0.428573407515791E+05
     0.850500000000000E+01     0.576891025641026E+01    -0.126518670554999E+05    -0.389583958957602E+05     0.754814932310773E+04     0.368219171120127E+05     0.000000000000000E+00    -0.106399436063752E+05    -0.409703193448848E+05
     0.810000000000000E+01     0.597141025641026E+01    -0.121125187707740E+05    -0.368412106861747E+05     0.773361073803492E+04     0.351734880977631E+05     0.000000000000000E+00    -0.989311397603933E+04    -0.390606154809094E+05
     0.769500000000000E+01     0.617391025641026E+01    -0.115742003493354E+05    -0.346948827290595E+05     0.786960688512473E+04     0.334951282291339E+05     0.000000000000000E+00    -0.914982842263961E+04    -0.371192546557553E+05
     0.729000000000000E+01     0.637641025641026E+01    -0.110444900346880E+05    -0.325128017895463E+05     0.795224945210518E+04     0.317756280663929E+05     0.000000000000000E+00    -0.841973975369784E+04    -0.351375520705365E+05
     0.688500000000000E+01     0.657891025641026E+01    -0.105313357440943E+05    -0.302880596973739E+05     0.797812568874117E+04     0.300042219627899E+05     0.000000000000000E+00    -0.771196072365960E+04    -0.331074347178086E+05
     0.648000000000000E+01     0.678141025641026E+01    -0.100430075619414E+05    -0.280134469293063E+05     0.794436082187898E+04     0.281711653469966E+05     0.000000000000000E+00    -0.703460220428459E+04    -0.310218522869631E+05
     0.607500000000000E+01     0.698391025641026E+01    -0.958805023310843E+04    -0.256814491915523E+05     0.784868047049075E+04     0.262685719125889E+05     0.000000000000000E+00    -0.639414663078827E+04    -0.288753527938724E+05
     0.567000000000000E+01     0.718641025641026E+01    -0.917523565633338E+04    -0.232842440021825E+05     0.768947306071898E+04     0.242916967327810E+05     0.000000000000000E+00    -0.579450983287871E+04    -0.266649698256372E+05
     0.526500000000000E+01     0.738891025641026E+01    -0.881351537758008E+04    -0.208136972735497E+05     0.746585224092098E+04     0.222410219093206E+05     0.000000000000000E+00    -0.523550416139092E+04    -0.243917084897388E+05
     0.486000000000000E+01     0.759141025641026E+01    -0.851197308340509E+04    -0.182613598947058E+05     0.717771929671339E+04     0.201258468143258E+05     0.000000000000000E+00    -0.471012973171367E+04    -0.220632032463972E+05
     0.445500000000000E+01     0.779391025641026E+01    -0.827977709432471E+04    -0.156184643138213E+05     0.682582556601665E+04     0.179707934480581E+05     0.000000000000000E+00    -0.419954154233220E+04    -0.196986998658138E+05
     0.405000000000000E+01     0.799641025641026E+01    -0.812613285818191E+04    -0.128759211206034E+05     0.641183485409947E+04     0.158280388179984E+05     0.000000000000000E+00    -0.366350197439605E+04    -0.173385520043892E+05
     0.364500000000000E+01     0.819891025641026E+01    -0.806023544351325E+04    -0.100243156287148E+05     0.593838584862333E+04     0.138003345815535E+05     0.000000000000000E+00    -0.302323664019342E+04    -0.150613144320346E+05
     0.324000000000000E+01     0.840141025641026E+01    -0.809122203291588E+04    -0.705390445819244E+04     0.540915453468696E+04     0.120800493898582E+05     0.000000000000000E+00    -0.213859970888666E+04    -0.130065267822217E+05
     0.283500000000000E+01     0.860391025641026E+01    -0.822812441641449E+04    -0.395461211786541E+04     0.482891660987083E+04     0.109889605862232E+05     0.000000000000000E+00    -0.810822607215309E+03    -0.113719139270646E+05
     0.243000000000000E+01     0.880641025641026E+01    -0.847982148482819E+04    -0.716027587773860E+03     0.420360989928163E+04     0.109251677494896E+05     0.112391608576484E+04     0.000000000000000E+00    -0.103197651583669E+05
     0.106600000000000E+02     0.476923076923077E+01    -0.151072996626734E+05    -0.480768609845011E+05     0.592049983799767E+04     0.438002337263455E+05     0.000000000000000E+00    -0.140763641872094E+05    -0.491077964599652E+05
     0.102500000000000E+02     0.497423076923077E+01    -0.146640062000789E+05    -0.459971223552394E+05     0.629991730436949E+04     0.421347022004604E+05     0.000000000000000E+00    -0.134447714315980E+05    -0.472163571237203E+05
     0.984000000000000E+01     0.517923076923077E+01    -0.141892003150033E+05    -0.439192154132769E+05     0.665461315842167E+04     0.404957278214018E+05     0.000000000000000E+00    -0.127676389890169E+05    -0.453407767392633E+05
     0.943000000000000E+01     0.538423076923077E+01    -0.136880416365609E+05    -0.418378116798946E+05     0.697896699914679E+04     0.388742228587929E+05     0.000000000000000E+00    -0.120527907979520E+05    -0.434730625185035E+05
     0.902000000000000E+01     0.558923076923077E+01    -0.131663525978693E+05    -0.397472835288325E+05     0.726752543421442E+04     0.372602122473234E+05     0.000000000000000E+00    -0.113090988216264E+05    -0.416045373050755E+05
     0.861000000000000E+01     0.579423076923077E+01    -0.126305679236015E+05    -0.376417005524728E+05     0.751506844410813E+04     0.356429736711986E+05     0.000000000000000E+00    -0.105462253087676E+05    -0.397260431673066E+05
     0.820000000000000E+01     0.599923076923077E+01    -0.120876841175370E+05    -0.355148259280212E+05     0.771667574626275E+04     0.340112367377996E+05     0.000000000000000E+00    -0.977432278778578E+04    -0.378281872577724E+05
     0.779000000000000E+01     0.620423076923077E+01    -0.115452089501140E+05    -0.333601127836927E+05     0.786779315920132E+04     0.323534543680163E+05     0.000000000000000E+00    -0.900369523704743E+04    -0.359016264967593E+05
     0.738000000000000E+01     0.640923076923077E+01    -0.110111109459811E+05    -0.311707005648922E+05     0.796429896667231E+04     0.306581680776674E+05     0.000000000000000E+00    -0.824441512837178E+04    -0.339373963825015E+05
     0.697000000000000E+01     0.661423076923077E+01    -0.104937688715483E+05    -0.289394114003992E+05     0.800257028178669E+04     0.289145052899302E+05     0.000000000000000E+00    -0.750587503854914E+04    -0.319273052333984E+05
     0.656000000000000E+01     0.681923076923077E+01    -0.100019212225396E+05    -0.266587464685502E+05     0.797954941115500E+04     0.271128776739287E+05     0.000000000000000E+00    -0.679622505361397E+04    -0.298644426374758E+05
     0.615000000000000E+01     0.702423076923077E+01    -0.954461571154390E+04    -0.243208823634218E+05     0.789281021902454E+04     0.252460074378611E+05     0.000000000000000E+00    -0.612159890461595E+04    -0.277438991703497E+05
     0.574000000000000E+01     0.722923076923077E+01    -0.913115875556714E+04    -0.219176674610141E+05     0.774062449141640E+04     0.233105192684347E+05     0.000000000000000E+00    -0.548494256768275E+04    -0.255638836488985E+05
     0.533000000000000E+01     0.743423076923077E+01    -0.877106496358379E+04    -0.194406182854337E+05     0.752202830026262E+04     0.213095523944410E+05     0.000000000000000E+00    -0.488408735691402E+04    -0.233275958921034E+05
     0.492000000000000E+01     0.763923076923077E+01    -0.847400662408854E+04    -0.168809158750763E+05     0.723688836754326E+04     0.192572785157527E+05     0.000000000000000E+00    -0.430837623191956E+04    -0.210465462672453E+05
     0.451000000000000E+01     0.784423076923077E+01    -0.824976319264802E+04    -0.142294021488104E+05     0.688596842942354E+04     0.171870580315466E+05     0.000000000000000E+00    -0.373254718909391E+04    -0.187466181523645E+05
     0.410000000000000E+01     0.804923076923077E+01    -0.810817077945242E+04    -0.114765762721603E+05     0.647099560039091E+04     0.151664612920162E+05     0.000000000000000E+00    -0.310579570519403E+04    -0.164789513464187E+05
     0.369000000000000E+01     0.825423076923077E+01    -0.805907163686720E+04    -0.861259102348884E+04     0.599472673739223E+04     0.133238927388627E+05     0.000000000000000E+00    -0.233471938455938E+04    -0.143369432757967E+05
     0.328000000000000E+01     0.845923076923077E+01    -0.811226364698475E+04    -0.562724916018071E+04     0.546101480397078E+04     0.118866763168621E+05     0.000000000000000E+00    -0.126917545701170E+04    -0.124703373501538E+05
     0.287000000000000E+01     0.866423076923077E+01    -0.827744980917608E+04    -0.250999978482581E+04     0.487487523440344E+04     0.111952267809239E+05     0.270220691511855E+03     0.000000000000000E+00    -0.110576702855137E+05
     0.246000000000000E+01     0.886923076923077E+01    -0.856418772764249E+04     0.750065288598329E+03     0.424255229783778E+04     0.115900543273391E+05     0.239278618438592E+04     0.000000000000000E+00    -0.102069086234301E+05
     0.107900000000000E+02     0.478205128205128E+01    -0.150786645577527E+05    -0.468303793661767E+05     0.579379783893125E+04     0.426029958458978E+05     0.000000000000000E+00    -0.140544941005297E+05    -0.478545498233996E+05
     0.103750000000000E+02     0.498955128205128E+01    -0.146395583336911E+05    -0.447306195663032E+05     0.619053999053993E+04     0.409301458178599E+05     0.000000000000000E+00    -0.134157688381831E+05    -0.459544090618112E+05
     0.996000000000000E+01     0.519705128205128E+01    -0.141670294268331E+05    -0.426350846897202E+05     0.656299053759872E+04     0.392894541099188E+05     0.000000000000000E+00    -0.127268621057661E+05    -0.440752520107872E+05
     0.954500000000000E+01     0.540455128205128E+01    -0.136663793364841E+05    -0.405382888982283E+05     0.690522658002763E+04     0.376717084772418E+05     0.000000000000000E+00    -0.119958111886622E+05    -0.422088570460503E+05
     0.913000000000000E+01     0.561205128205128E+01    -0.131436315903670E+05    -0.384344279650499E+05     0.721149558751641E+04     0.360667346546800E+05     0.000000000000000E+00    -0.112318403537438E+05    -0.403462192016731E+05
     0.871500000000000E+01     0.581955128205128E+01    -0.126054780761019E+05    -0.363173754139673E+05     0.747628591016375E+04     0.344635533274695E+05     0.000000000000000E+00    -0.104450659530573E+05    -0.384777875370120E+05
     0.830000000000000E+01     0.602705128205128E+01    -0.120592253726868E+05    -0.341806786584615E+05     0.769439728911658E+04     0.328506080877779E+05     0.000000000000000E+00    -0.964614692898325E+04    -0.365937571021650E+05
     0.788500000000000E+01     0.623455128205128E+01    -0.115127410819767E+05    -0.320175551408496E+05     0.786101136720922E+04     0.312160811305590E+05     0.000000000000000E+00    -0.884588537654203E+04    -0.346844108462843E+05
     0.747000000000000E+01     0.644205128205128E+01    -0.109744001601644E+05    -0.298208884714241E+05     0.797176219960266E+04     0.295483241924907E+05     0.000000000000000E+00    -0.805477094758598E+04    -0.327405176840026E+05
     0.705500000000000E+01     0.664955128205128E+01    -0.104530312492600E+05    -0.275832245675908E+05     0.802280676442373E+04     0.278364530179694E+05     0.000000000000000E+00    -0.728244262122848E+04    -0.307538131956223E+05
     0.664000000000000E+01     0.685705128205128E+01    -0.995786300857078E+04    -0.252967677930071E+05     0.801089547340441E+04     0.260711926671149E+05     0.000000000000000E+00    -0.653700673590895E+04    -0.287176240656689E+05
     0.622500000000000E+01     0.706455128205128E+01    -0.949847044618180E+04    -0.229533770967204E+05     0.793344268252096E+04     0.242461342353479E+05     0.000000000000000E+00    -0.582409022920854E+04    -0.266277573136936E+05
     0.581000000000000E+01     0.727205128205128E+01    -0.908472125043532E+04    -0.205445621523063E+05     0.778859720263321E+04     0.223597028830157E+05     0.000000000000000E+00    -0.514540001657906E+04    -0.244838833861626E+05
     0.539500000000000E+01     0.747955128205128E+01    -0.872672212141102E+04    -0.180614794970074E+05     0.757531281012377E+04     0.204184059232564E+05     0.000000000000000E+00    -0.449636019787770E+04    -0.222918414205407E+05
     0.498000000000000E+01     0.768705128205128E+01    -0.843476510240593E+04    -0.154949286708710E+05     0.729341875753725E+04     0.184424473633301E+05     0.000000000000000E+00    -0.386204276854660E+04    -0.200676510047303E+05
     0.456500000000000E+01     0.789455128205128E+01    -0.821927391141451E+04    -0.128353483558876E+05     0.694369028421950E+04     0.164757364464194E+05     0.000000000000000E+00    -0.321008006019206E+04    -0.178445422071100E+05
     0.415000000000000E+01     0.810205128205128E+01    -0.809075027260851E+04    -0.100728125151296E+05     0.652791912695682E+04     0.146036422073472E+05     0.000000000000000E+00    -0.247906446737617E+04    -0.156844983203619E+05
     0.373500000000000E+01     0.830955128205128E+01    -0.805972024781706E+04    -0.719702653188928E+04     0.604898403061517E+04     0.129815593947167E+05     0.000000000000000E+00    -0.156402940929660E+04    -0.136927173704097E+05
     0.332000000000000E+01     0.851705128205128E+01    -0.813668056800665E+04    -0.419732334881695E+04     0.551092125877945E+04     0.118651411281848E+05     0.000000000000000E+00    -0.314661661952377E+03    -0.120193422548712E+05
     0.290500000000000E+01     0.872455128205128E+01    -0.833204496476104E+04    -0.106265960706020E+04     0.491899510439267E+04     0.115882539503643E+05     0.141881511751516E+04     0.000000000000000E+00    -0.108135196893364E+05
     0.249000000000000E+01     0.893205128205128E+01    -0.865609050176134E+04     0.221838821459920E+04     0.427976840039523E+04     0.124097127638810E+05     0.370068564721397E+04     0.000000000000000E+00    -0.101383879343761E+05
     0.109200000000000E+02     0.479487179487179E+01    -0.150445263684127E+05    -0.455789357864225E+05     0.566022334107086E+04     0.414026333051665E+05     0.000000000000000E+00    -0.140290510800257E+05    -0.465944110748095E+05
     0.105000000000000E+02     0.500487179487179E+01    -0.146100059057287E+05    -0.434583946345421E+05     0.607436462549025E+04     0.397221682605959E+05     0.000000000000000E+00    -0.133831527439923E+05    -0.446852477962784E+05
     0.100800000000000E+02     0.521487179487179E+01    -0.141401014530184E+05    -0.413445946284972E+05     0.646472501340933E+04     0.380799057248379E+05     0.000000000000000E+00    -0.126820100056183E+05    -0.428026860758972E+05
     0.966000000000000E+01     0.542487179487179E+01    -0.136402556379228E+05    -0.392318920562655E+05     0.682506676702524E+04     0.364665531754587E+05     0.000000000000000E+00    -0.119338498791465E+05    -0.409382978150418E+05
     0.924000000000000E+01     0.563487179487179E+01    -0.131166961335976E+05    -0.371143045994245E+05     0.714932570035343E+04     0.348717771504230E+05     0.000000000000000E+00    -0.111482472009986E+05    -0.390827535320234E+05
     0.882000000000000E+01     0.584487179487179E+01    -0.125763786783012E+05    -0.349855072340352E+05     0.743168604108887E+04     0.332843792505588E+05     0.000000000000000E+00    -0.103357870228899E+05    -0.372260988894465E+05
     0.840000000000000E+01     0.605487179487180E+01    -0.120269300949823E+05    -0.328388281315262E+05     0.766665529246727E+04     0.316925574913584E+05     0.000000000000000E+00    -0.950765654865631E+04    -0.353581016778522E+05
     0.798000000000000E+01     0.626487179487179E+01    -0.114765913108672E+05    -0.306672445595780E+05     0.784913909512629E+04     0.300842742667472E+05     0.000000000000000E+00    -0.867517329952473E+04    -0.334686625709204E+05
     0.756000000000000E+01     0.647487179487180E+01    -0.109341603770479E+05    -0.284633787830063E+05     0.797451608896673E+04     0.284477655883448E+05     0.000000000000000E+00    -0.784924295091082E+04    -0.315482962091434E+05
     0.714000000000000E+01     0.668487179487179E+01    -0.104089354880698E+05    -0.262194939646468E+05     0.803871277501374E+04     0.267722522359739E+05     0.000000000000000E+00    -0.703971505167278E+04    -0.295887144010438E+05
     0.672000000000000E+01     0.689487179487180E+01    -0.991065800151899E+04    -0.239274900662385E+05     0.803827837727804E+04     0.250489622504333E+05     0.000000000000000E+00    -0.625456211099860E+04    -0.275835859567589E+05
     0.630000000000000E+01     0.710487179487180E+01    -0.944945545761022E+04    -0.215788997493080E+05     0.797045970461712E+04     0.232726653939659E+05     0.000000000000000E+00    -0.549873539608378E+04    -0.255296198108344E+05
     0.588000000000000E+01     0.731487179487180E+01    -0.903578459877455E+04    -0.191648842760537E+05     0.783327601259645E+04     0.214440916272916E+05     0.000000000000000E+00    -0.477242587452700E+04    -0.234282430003013E+05
     0.546000000000000E+01     0.752487179487180E+01    -0.868037438924699E+04    -0.166762294102293E+05     0.762559386535066E+04     0.195739280063085E+05     0.000000000000000E+00    -0.406824346913409E+04    -0.212883603303421E+05
     0.504000000000000E+01     0.773487179487180E+01    -0.839416903465415E+04    -0.141033413180278E+05     0.734720199744480E+04     0.176896752573913E+05     0.000000000000000E+00    -0.336649412816658E+04    -0.191310162245154E+05
     0.462000000000000E+01     0.794487179487180E+01    -0.818827100160198E+04    -0.114362424689663E+05     0.699888617573552E+04     0.158475737679761E+05     0.000000000000000E+00    -0.262742985051475E+04    -0.169970836200535E+05
     0.420000000000000E+01     0.815487179487180E+01    -0.807388403726341E+04    -0.866456753676885E+04     0.658250406123224E+04     0.141525156657717E+05     0.000000000000000E+00    -0.178009940597851E+04    -0.149583521680537E+05
     0.378000000000000E+01     0.836487179487179E+01    -0.806225618896602E+04    -0.577755930025131E+04     0.610106007095842E+04     0.127854919759547E+05     0.000000000000000E+00    -0.712823569428754E+03    -0.131269919197886E+05
     0.336000000000000E+01     0.857487179487179E+01    -0.816462282377976E+04    -0.276406454420462E+04     0.555878023981275E+04     0.120180567255567E+05     0.715587156017637E+03     0.000000000000000E+00    -0.116442745240020E+05
     0.294000000000000E+01     0.878487179487179E+01    -0.839214964810457E+04     0.387470039720385E+03     0.496118708243032E+04     0.121519606280622E+05     0.262214566507904E+04     0.000000000000000E+00    -0.106268252734632E+05
     0.252000000000000E+01     0.899487179487179E+01    -0.875587572725813E+04     0.368900195212991E+04     0.431517445504387E+04     0.133580211684537E+05     0.503884649931437E+04     0.000000000000000E+00    -0.101057202744426E+05
     0.110500000000000E+02     0.480769230769231E+01    -0.150046309107083E+05    -0.443228010567642E+05     0.551972814663853E+04     0.401995593002830E+05     0.000000000000000E+00    -0.139998667125301E+05    -0.453275652549424E+05
     0.106250000000000E+02     0.502019230769231E+01    -0.145751005101098E+05    -0.421806767530731E+05     0.595132205859542E+04     0.385111691032865E+05     0.000000000000000E+00    -0.133467478175468E+05    -0.434090294456361E+05
     0.102000000000000E+02     0.523269230769231E+01    -0.141081741305969E+05    -0.400479352231265E+05     0.635973046256961E+04     0.368675055286610E+05     0.000000000000000E+00    -0.126328487959851E+05    -0.415232605577384E+05
     0.977500000000000E+01     0.544519230769231E+01    -0.136094345169543E+05    -0.379187745634140E+05     0.673838809481274E+04     0.352592500661498E+05     0.000000000000000E+00    -0.118665552062218E+05    -0.396616538741465E+05
     0.935000000000000E+01     0.565769230769231E+01    -0.130853164393918E+05    -0.357870330327175E+05     0.708090622738205E+04     0.336759600746094E+05     0.000000000000000E+00    -0.110577885451907E+05    -0.378145609269185E+05
     0.892500000000000E+01     0.587019230769231E+01    -0.125430462397196E+05    -0.336461847031211E+05     0.738115209343213E+04     0.321062660894415E+05     0.000000000000000E+00    -0.102176197240516E+05    -0.359716112187890E+05
     0.850000000000000E+01     0.608269230769231E+01    -0.119905813775228E+05    -0.314893351110218E+05     0.763332831250658E+04     0.305381717807726E+05     0.000000000000000E+00    -0.935779161575268E+04    -0.341221248727919E+05
     0.807500000000000E+01     0.629519230769231E+01    -0.114365499763365E+05    -0.293092169081385E+05     0.783205231582978E+04     0.289594833798192E+05     0.000000000000000E+00    -0.849016072008007E+04    -0.322556061643950E+05
     0.765000000000000E+01     0.650769230769231E+01    -0.108901903698204E+05    -0.270981855125231E+05     0.797243577159853E+04     0.273584119029367E+05     0.000000000000000E+00    -0.762605226425741E+04    -0.303623236180860E+05
     0.722500000000000E+01     0.672019230769231E+01    -0.103612906479336E+05    -0.248482147595690E+05     0.805016401027382E+04     0.257244235542679E+05     0.000000000000000E+00    -0.677549219592441E+04    -0.284340132115782E+05
     0.680000000000000E+01     0.693269230769231E+01    -0.986012820310951E+04    -0.225508925530231E+05     0.806157544987249E+04     0.240494737500502E+05     0.000000000000000E+00    -0.594622806007514E+04    -0.264647926960575E+05
     0.637500000000000E+01     0.714519230769231E+01    -0.939740927643074E+04    -0.201974165159943E+05     0.800374102125898E+04     0.223298713992740E+05     0.000000000000000E+00    -0.514236709471369E+04    -0.244524586977113E+05
     0.595000000000000E+01     0.735769230769231E+01    -0.898420850380375E+04    -0.177785896419638E+05     0.787454359343702E+04     0.205692247366062E+05     0.000000000000000E+00    -0.436232363768830E+04    -0.224004745080792E+05
     0.552500000000000E+01     0.757019230769231E+01    -0.863190846213373E+04    -0.152848159457954E+05     0.767275739884133E+04     0.187832885404887E+05     0.000000000000000E+00    -0.359555761471255E+04    -0.203211667932166E+05
     0.510000000000000E+01     0.778269230769231E+01    -0.835213921549946E+04    -0.127060961147454E+05     0.739812745862934E+04     0.170081419913740E+05     0.000000000000000E+00    -0.281733933167378E+04    -0.182408959985711E+05
     0.467500000000000E+01     0.799519230769231E+01    -0.815671786132808E+04    -0.100320231594727E+05     0.705144900797289E+04     0.153138483663481E+05     0.000000000000000E+00    -0.198085340545474E+04    -0.162078876153460E+05
     0.425000000000000E+01     0.820769230769231E+01    -0.805758807656991E+04    -0.725177806504816E+04     0.663464692134997E+04     0.138252229478757E+05     0.000000000000000E+00    -0.100781371639520E+04    -0.143015524252229E+05
     0.382500000000000E+01     0.842019230769231E+01    -0.806675966387327E+04    -0.435412544196588E+04     0.615085513783638E+04     0.127438766916632E+05     0.214425705890688E+03     0.000000000000000E+00    -0.126353108117298E+05
     0.340000000000000E+01     0.863269230769231E+01    -0.819624809775930E+04    -0.132740917715183E+04     0.560449608639747E+04     0.123406584997627E+05     0.181126906543594E+04     0.000000000000000E+00    -0.113349263403471E+05
     0.297500000000000E+01     0.884519230769231E+01    -0.845801407079680E+04     0.184045191502525E+04     0.500136011117985E+04     0.128659489487689E+05     0.386953372274705E+04     0.000000000000000E+00    -0.104870958785186E+05
     0.255000000000000E+01     0.905769230769231E+01    -0.886390303977700E+04     0.516196844174416E+04     0.434868489680309E+04     0.144119070233328E+05     0.640084026270728E+04     0.000000000000000E+00    -0.101027748607401E+05
     0.111800000000000E+02     0.482051282051282E+01    -0.149587190000296E+05    -0.430622502641439E+05     0.537226575664127E+04     0.389942084007775E+05     0.000000000000000E+00    -0.139667697737733E+05    -0.440541994904003E+05
     0.107500000000000E+02     0.503551282051282E+01    -0.145345887000067E+05    -0.408976989251113E+05     0.582134410011929E+04     0.372975730415559E+05     0.000000000000000E+00    -0.133063748235277E+05    -0.421259128015903E+05
     0.103200000000000E+02     0.525051282051282E+01    -0.140710001754864E+05    -0.387452998034501E+05     0.624792108330660E+04     0.356527100800743E+05     0.000000000000000E+00    -0.125791303786694E+05    -0.402371696002672E+05
     0.989000000000000E+01     0.546551282051282E+01    -0.135736749965006E+05    -0.365990926919443E+05     0.664509087290158E+04     0.340503413719197E+05     0.000000000000000E+00    -0.117935399904215E+05    -0.383792276980234E+05
     0.946000000000000E+01     0.568051282051282E+01    -0.130492578762063E+05    -0.344527352632702E+05     0.700612693756213E+04     0.324799771435470E+05     0.000000000000000E+00    -0.109598658249654E+05    -0.365421273145110E+05
     0.903000000000000E+01     0.589551282051282E+01    -0.125052525762905E+05    -0.322994984590926E+05     0.732456625650554E+04     0.309301369044029E+05     0.000000000000000E+00    -0.100896863977980E+05    -0.347150646375852E+05
     0.860000000000000E+01     0.611051282051282E+01    -0.119499578123739E+05    -0.301322618791622E+05     0.759429352810829E+04     0.293886937783519E+05     0.000000000000000E+00    -0.919533678170190E+04    -0.328868829098342E+05
     0.817000000000000E+01     0.632551282051282E+01    -0.113924031594149E+05    -0.279435091704109E+05     0.780962537850586E+04     0.278433758370490E+05     0.000000000000000E+00    -0.828924683127535E+04    -0.310466654985504E+05
     0.774000000000000E+01     0.654051282051282E+01    -0.108422849571143E+05    -0.257253234160493E+05     0.796539457019258E+04     0.262824780573946E+05     0.000000000000000E+00    -0.738317488817022E+04    -0.291844334849933E+05
     0.731000000000000E+01     0.675551282051282E+01    -0.103099022153189E+05    -0.234693825246622E+05     0.805703421062146E+04     0.246958774233383E+05     0.000000000000000E+00    -0.648729740483377E+04    -0.272919873351474E+05
     0.688000000000000E+01     0.697051282051282E+01    -0.980609251942618E+04    -0.211669546193060E+05     0.808066196080398E+04     0.230765161187353E+05     0.000000000000000E+00    -0.560905452927763E+04    -0.253639926094545E+05
     0.645000000000000E+01     0.718551282051282E+01    -0.934216793578780E+04    -0.188088934266045E+05     0.803316424390995E+04     0.214226496004825E+05     0.000000000000000E+00    -0.475155885320069E+04    -0.233995025091916E+05
     0.602000000000000E+01     0.740051282051282E+01    -0.892985091711427E+04    -0.163856336658457E+05     0.791228045386732E+04     0.197413907351201E+05     0.000000000000000E+00    -0.391123692763775E+04    -0.214042476553223E+05
     0.559000000000000E+01     0.761551282051282E+01    -0.858121020787887E+04    -0.138871864380782E+05     0.771668716396200E+04     0.180544740199199E+05     0.000000000000000E+00    -0.307419791088811E+04    -0.193941987350690E+05
     0.516000000000000E+01     0.783051282051282E+01    -0.830859674972180E+04    -0.113031346152074E+05     0.744608233543771E+04     0.164077076702311E+05     0.000000000000000E+00    -0.221073853388610E+04    -0.174009928310431E+05
     0.473000000000000E+01     0.804551282051282E+01    -0.812457958685442E+04    -0.862262822909252E+04     0.710126952609578E+04     0.148858109752853E+05     0.000000000000000E+00    -0.126796938354390E+04    -0.154792384324030E+05
     0.430000000000000E+01     0.826051282051282E+01    -0.804188177146327E+04    -0.583437986064269E+04     0.668424209889496E+04     0.136319380516965E+05     0.000000000000000E+00    -0.163371882466566E+03    -0.137128897496394E+05
     0.387000000000000E+01     0.847551282051282E+01    -0.807331626911431E+04    -0.292666002891341E+04     0.619826743055132E+04     0.128596842847051E+05     0.121123653462869E+04     0.000000000000000E+00    -0.122112128326564E+05
     0.344000000000000E+01     0.869051282051282E+01    -0.823172186415700E+04     0.112707419797109E+03     0.564797112013797E+04     0.128218741713079E+05     0.296238374768282E+04     0.000000000000000E+00    -0.110813981920427E+05
     0.301000000000000E+01     0.890551282051282E+01    -0.852989906512850E+04     0.329634992285079E+04     0.503942119768496E+04     0.137087538100095E+05     0.515244722316569E+04     0.000000000000000E+00    -0.103859963654434E+05
     0.258000000000000E+01     0.912051282051282E+01    -0.898054601015778E+04     0.663735081217406E+04     0.438021233277910E+04     0.155521846388026E+05     0.778194557499691E+04     0.000000000000000E+00    -0.101251407729806E+05
     0.113100000000000E+02     0.483333333333333E+01    -0.149065264129445E+05    -0.417975627873121E+05     0.521779139829576E+04     0.377870394738954E+05     0.000000000000000E+00    -0.139295861967208E+05    -0.427745030035358E+05
     0.108750000000000E+02     0.505083333333333E+01    -0.144882119479031E+05    -0.396096979803187E+05     0.568436354044234E+04     0.360818337475782E+05     0.000000000000000E+00    -0.132618503377174E+05    -0.408360595905045E+05
     0.104400000000000E+02     0.526833333333333E+01    -0.140283272418334E+05    -0.374368850512646E+05     0.612921140739029E+04     0.344360153118937E+05     0.000000000000000E+00    -0.125205897540428E+05    -0.389446225390553E+05
     0.100050000000000E+02     0.548583333333333E+01    -0.135327311058630E+05    -0.352730055913686E+05     0.654507519144274E+04     0.328404272574770E+05     0.000000000000000E+00    -0.117143738383155E+05    -0.370913628589161E+05
     0.957000000000000E+01     0.570333333333333E+01    -0.130082809296245E+05    -0.331115356997232E+05     0.692487691464335E+04     0.312846091807724E+05     0.000000000000000E+00    -0.108537978215300E+05    -0.352660188078176E+05
     0.913500000000000E+01     0.592083333333333E+01    -0.124627647725543E+05    -0.309455410980077E+05     0.726180964841340E+04     0.297570438429289E+05     0.000000000000000E+00    -0.995097742633978E+04    -0.334573284442222E+05
     0.870000000000000E+01     0.613833333333333E+01    -0.119048334551927E+05    -0.287676722452021E+05     0.754942673318917E+04     0.282455520574465E+05     0.000000000000000E+00    -0.901889109870011E+04    -0.316536146016946E+05
     0.826500000000000E+01     0.635583333333333E+01    -0.113439326504828E+05    -0.265701594523001E+05     0.778173099805909E+04     0.267378775137130E+05     0.000000000000000E+00    -0.807059424277866E+04    -0.298434978600042E+05
     0.783000000000000E+01     0.657333333333333E+01    -0.107902349750703E+05    -0.243448079970230E+05     0.795326398040096E+04     0.252225270808483E+05     0.000000000000000E+00    -0.711831001370074E+04    -0.280167329583926E+05
     0.739500000000000E+01     0.679083333333333E+01    -0.102545720806027E+05    -0.220829932385329E+05     0.805919514551927E+04     0.236899783070828E+05     0.000000000000000E+00    -0.617235764029695E+04    -0.261652076788387E+05
     0.696000000000000E+01     0.700833333333333E+01    -0.974836674502875E+04    -0.197756557321459E+05     0.809541110628235E+04     0.221344507966814E+05     0.000000000000000E+00    -0.523981022792232E+04    -0.242842122492524E+05
     0.652500000000000E+01     0.722583333333333E+01    -0.928356496389799E+04    -0.174132963440461E+05     0.805860484275963E+04     0.205565886322164E+05     0.000000000000000E+00    -0.432267610988597E+04    -0.223741851980581E+05
     0.609000000000000E+01     0.744333333333333E+01    -0.887256804166008E+04    -0.149859713659986E+05     0.794636492185891E+04     0.189676539728896E+05     0.000000000000000E+00    -0.341527296182514E+04    -0.204432664458335E+05
     0.565500000000000E+01     0.766083333333333E+01    -0.852816468296430E+04    -0.124832876300630E+05     0.775726471696355E+04     0.173962064223151E+05     0.000000000000000E+00    -0.250035887757421E+04    -0.185110934354531E+05
     0.522000000000000E+01     0.787833333333333E+01    -0.826346308395890E+04    -0.989439762330704E+04     0.749095162756972E+04     0.158985850260209E+05     0.000000000000000E+00    -0.154372344509363E+04    -0.166141372621723E+05
     0.478500000000000E+01     0.809583333333333E+01    -0.809182302359064E+04    -0.720799460252014E+04     0.714823629892364E+04     0.145739087382977E+05     0.000000000000000E+00    -0.488025656041264E+03    -0.148117919700695E+05
     0.435000000000000E+01     0.831333333333333E+01    -0.802678795490409E+04    -0.441230770892650E+04     0.673118184165882E+04     0.135796742514810E+05     0.750023593044632E+03     0.000000000000000E+00    -0.131891192568752E+05
     0.391500000000000E+01     0.853083333333333E+01    -0.808201709634117E+04    -0.149509708289837E+04     0.624319305143326E+04     0.131302434813891E+05     0.227007863503255E+04     0.000000000000000E+00    -0.118471928142721E+05
     0.348000000000000E+01     0.874833333333333E+01    -0.827121752304052E+04     0.155635102132949E+04     0.568910562856675E+04     0.134464104583208E+05     0.415995982963207E+04     0.000000000000000E+00    -0.108748263313431E+05
     0.304500000000000E+01     0.896583333333333E+01    -0.860807625813695E+04     0.475522912094768E+04     0.507527539767803E+04     0.146601438206952E+05     0.646422021039777E+04     0.000000000000000E+00    -0.103170673475870E+05
     0.261000000000000E+01     0.918333333333333E+01    -0.910619236406085E+04     0.811521338985764E+04     0.440966752732208E+04     0.167634610102511E+05     0.917867051451058E+04     0.000000000000000E+00    -0.101696494887138E+05
     0.114400000000000E+02     0.484615384615385E+01    -0.148477838490401E+05    -0.405290223132210E+05     0.505626205245306E+04     0.365785391972258E+05     0.000000000000000E+00    -0.138881390182002E+05    -0.414886671440609E+05
     0.110000000000000E+02     0.506615384615385E+01    -0.144357066056514E+05    -0.383169145911542E+05     0.554031416928935E+04     0.348644385470615E+05     0.000000000000000E+00    -0.132129863675659E+05    -0.395396348292397E+05
     0.105600000000000E+02     0.528615384615385E+01    -0.139798978813624E+05    -0.361228910159536E+05     0.600351631216552E+04     0.332179634666618E+05     0.000000000000000E+00    -0.124569415288176E+05    -0.376458473684983E+05
     0.101200000000000E+02     0.550615384615385E+01    -0.134863518402582E+05    -0.339406753028199E+05     0.643824092702794E+04     0.316301766647653E+05     0.000000000000000E+00    -0.116285732195045E+05    -0.357984539235736E+05
     0.968000000000000E+01     0.572615384615385E+01    -0.129621411628565E+05    -0.317635611737354E+05     0.683704455765175E+04     0.300907409852999E+05     0.000000000000000E+00    -0.107388016635113E+05    -0.339869006730806E+05
     0.924000000000000E+01     0.594615384615385E+01    -0.124153451438505E+05    -0.295844071848832E+05     0.719276231208122E+04     0.285881934805201E+05     0.000000000000000E+00    -0.980032248931789E+04    -0.321994298394158E+05
     0.880000000000000E+01     0.616615384615385E+01    -0.118549777898537E+05    -0.273956315540692E+05     0.749860232907008E+04     0.271103971512838E+05     0.000000000000000E+00    -0.882683178250426E+04    -0.304237775614186E+05
     0.836000000000000E+01     0.638615384615385E+01    -0.112909159171428E+05    -0.251892069881424E+05     0.774824024452188E+04     0.256452216499942E+05     0.000000000000000E+00    -0.783209092230455E+04    -0.286480319829806E+05
     0.792000000000000E+01     0.660615384615385E+01    -0.107338272494023E+05    -0.229566555104159E+05     0.793591365793033E+04     0.241815318358754E+05     0.000000000000000E+00    -0.682884940172236E+04    -0.268616333580958E+05
     0.748000000000000E+01     0.682615384615385E+01    -0.101950985154678E+05    -0.206890432880885E+05     0.805651659881966E+04     0.227106162515424E+05     0.000000000000000E+00    -0.582759333252043E+04    -0.250565484710359E+05
     0.704000000000000E+01     0.704615384615385E+01    -0.968676354707024E+04    -0.183769754596644E+05     0.810569399318496E+04     0.212282835954144E+05     0.000000000000000E+00    -0.483501020887973E+04    -0.232287287978550E+05
     0.660000000000000E+01     0.726615384615385E+01    -0.922143137657938E+04    -0.160105909623751E+05     0.807993612993253E+04     0.197380180699784E+05     0.000000000000000E+00    -0.385196302754308E+04    -0.213800593114114E+05
     0.616000000000000E+01     0.748615384615385E+01    -0.881221433474789E+04    -0.135795573595997E+05     0.797667312732025E+04     0.182558339190720E+05     0.000000000000000E+00    -0.287067089143459E+04    -0.195211008029130E+05
     0.572000000000000E+01     0.770615384615385E+01    -0.847265614845503E+04    -0.110730656682861E+05     0.779436939939789E+04     0.168177581915750E+05     0.000000000000000E+00    -0.187078986642356E+04    -0.176749319503176E+05
     0.528000000000000E+01     0.792615384615385E+01    -0.821666003845055E+04    -0.847982518637189E+04     0.753261812244749E+04     0.154908393566282E+05     0.000000000000000E+00    -0.814475310961400E+03    -0.158820099138610E+05
     0.484000000000000E+01     0.814615384615385E+01    -0.805841681709853E+04    -0.578805832020502E+04     0.719223570142371E+04     0.143868647510431E+05     0.358031984862775E+03     0.000000000000000E+00    -0.142045071221663E+05
     0.440000000000000E+01     0.836615384615385E+01    -0.801233298612117E+04    -0.298549541196515E+04     0.677535623639415E+04     0.136713655410235E+05     0.172761512901480E+04     0.000000000000000E+00    -0.127254435271011E+05
     0.396000000000000E+01     0.858615384615385E+01    -0.809295883434264E+04    -0.593695670839807E+02     0.628552598897973E+04     0.135477873784562E+05     0.338322425189412E+04     0.000000000000000E+00    -0.115355526533207E+05
     0.352000000000000E+01     0.880615384615385E+01    -0.831491653543295E+04     0.300358851833345E+04     0.572779784879502E+04     0.141970762273572E+05     0.539634240970991E+04     0.000000000000000E+00    -0.107076704268094E+05
     0.308000000000000E+01     0.902615384615385E+01    -0.869282824565171E+04     0.621715573008801E+04     0.510882579988862E+04     0.157023328960863E+05     0.779969695614392E+04     0.000000000000000E+00    -0.102753694717076E+05
     0.264000000000000E+01     0.924615384615385E+01    -0.924124420159204E+04     0.959562170846545E+04     0.443695938718346E+04     0.180336313495093E+05     0.105884080831736E+05     0.000000000000000E+00    -0.102340305763002E+05
     0.115700000000000E+02     0.485897435897436E+01    -0.147822168927657E+05    -0.392569168534159E+05     0.488763648102337E+04     0.353692262955271E+05     0.000000000000000E+00    -0.138422482948825E+05    -0.401968854512991E+05
     0.111250000000000E+02     0.508147435897436E+01    -0.143768038645293E+05    -0.370195932892222E+05     0.538913079495716E+04     0.336459141199975E+05     0.000000000000000E+00    -0.131595898439301E+05    -0.382368073098215E+05
     0.106800000000000E+02     0.530397435897436E+01    -0.139254495027244E+05    -0.348035211301185E+05     0.587075103258406E+04     0.319991516130166E+05     0.000000000000000E+00    -0.123878753450549E+05    -0.363410952877880E+05
     0.102350000000000E+02     0.552647435897436E+01    -0.134342811203530E+05    -0.326022667734309E+05     0.632448774849078E+04     0.304203406758380E+05     0.000000000000000E+00    -0.115355885562719E+05    -0.345009593375120E+05
     0.979000000000000E+01     0.574897435897436E+01    -0.129105891772401E+05    -0.304089409527028E+05     0.674251758137637E+04     0.288993821528877E+05     0.000000000000000E+00    -0.106139684866513E+05    -0.327055616432916E+05
     0.934500000000000E+01     0.597147435897436E+01    -0.123627511985119E+05    -0.282161932644637E+05     0.711730321128471E+04     0.274249779843170E+05     0.000000000000000E+00    -0.963635478465629E+04    -0.309425896783193E+05
     0.890000000000000E+01     0.619397435897436E+01    -0.118001556930743E+05    -0.260162066949976E+05     0.744169331683696E+04     0.259851456393653E+05     0.000000000000000E+00    -0.861727132443851E+04    -0.291990910636333E+05
     0.845500000000000E+01     0.641647435897436E+01    -0.112331260720908E+05    -0.238006921471117E+05     0.770902253246399E+04     0.245680071996012E+05     0.000000000000000E+00    -0.757130919463680E+04    -0.274625090245658E+05
     0.801000000000000E+01     0.663897435897436E+01    -0.106728445674615E+05    -0.215608829669049E+05     0.791321140563893E+04     0.231629462090158E+05     0.000000000000000E+00    -0.651185154453230E+04    -0.257218759898341E+05
     0.756500000000000E+01     0.686147435897436E+01    -0.101312761503003E+05    -0.192875294705362E+05     0.804886635410951E+04     0.217622841389946E+05     0.000000000000000E+00    -0.544962455700425E+04    -0.239691810638323E+05
     0.712000000000000E+01     0.708397435897436E+01    -0.962109244941416E+04    -0.169708934709936E+05     0.811137962313062E+04     0.203637311969593E+05     0.000000000000000E+00    -0.439097341195238E+04    -0.222010125084553E+05
     0.667500000000000E+01     0.730647435897436E+01    -0.915559566978084E+04    -0.146007428048622E+05     0.809702924269671E+04     0.189740288972512E+05     0.000000000000000E+00    -0.333567022428342E+04    -0.204206682503596E+05
     0.623000000000000E+01     0.752897435897436E+01    -0.874864251102727E+04    -0.121663458590932E+05     0.800307898477430E+04     0.176144124645619E+05     0.000000000000000E+00    -0.227400793038973E+04    -0.186409804397308E+05
     0.578500000000000E+01     0.775147435897436E+01    -0.841456808590787E+04    -0.965646609777212E+04     0.782787832053440E+04     0.163286355561055E+05     0.000000000000000E+00    -0.118304890221576E+04    -0.168879852814642E+05
     0.534000000000000E+01     0.797397435897436E+01    -0.816810983878279E+04    -0.705935658888772E+04     0.757096237758499E+04     0.151937272499787E+05     0.000000000000000E+00    -0.225011158754287E+02    -0.152049653117951E+05
     0.489500000000000E+01     0.819647435897436E+01    -0.802433146409616E+04    -0.436275453110022E+04     0.723315189720345E+04     0.143307638733718E+05     0.126770842405220E+04     0.000000000000000E+00    -0.136547944192486E+05
     0.445000000000000E+01     0.841897435897436E+01    -0.799854682485442E+04    -0.155387578050987E+04     0.681665319156910E+04     0.139054958653985E+05     0.276369631953594E+04     0.000000000000000E+00    -0.123161189249002E+05
     0.400500000000000E+01     0.864147435897436E+01    -0.810624387110453E+04     0.138059062257418E+04     0.632515810099556E+04     0.141007623710732E+05     0.454335021287949E+04     0.000000000000000E+00    -0.112690034614098E+05
     0.356000000000000E+01     0.886397435897436E+01    -0.836300855841229E+04     0.445448792686540E+04     0.576394395116329E+04     0.150567076451275E+05     0.666520045098444E+04     0.000000000000000E+00    -0.105737210825313E+05
     0.311500000000000E+01     0.908647435897436E+01    -0.878444876634054E+04     0.768219714333196E+04     0.513997351035199E+04     0.168203609758342E+05     0.915489987184075E+04     0.000000000000000E+00    -0.102571514948493E+05
     0.267000000000000E+01     0.930897435897436E+01    -0.938611821692752E+04     0.110786425184272E+05     0.446199494667312E+04     0.193532731161085E+05     0.120091921824648E+05     0.000000000000000E+00    -0.103166678809652E+05
     0.117000000000000E+02     0.487179487179487E+01    -0.147095459752742E+05    -0.379815387604288E+05     0.471187525440074E+04     0.341596566733270E+05     0.000000000000000E+00    -0.137917309760428E+05    -0.388993537596602E+05
     0.112500000000000E+02     0.509679487179487E+01    -0.143112297152970E+05    -0.357179824816226E+05     0.523074926354233E+04     0.324268334845416E+05     0.000000000000000E+00    -0.131014619350706E+05    -0.369277502618491E+05
     0.108000000000000E+02     0.532179487179487E+01    -0.138647143308465E+05    -0.334789822252122E+05     0.573083117323650E+04     0.307802421608475E+05     0.000000000000000E+00    -0.123130498295082E+05    -0.350306467265504E+05
     0.103500000000000E+02     0.554679487179487E+01    -0.133762577518003E+05    -0.312579478707131E+05     0.620371512270800E+04     0.292117690835554E+05     0.000000000000000E+00    -0.114347872625822E+05    -0.331994183599311E+05
     0.990000000000000E+01     0.577179487179487E+01    -0.128533705727411E+05    -0.290478067524772E+05     0.664118301685574E+04     0.277116928982086E+05     0.000000000000000E+00    -0.104782320673504E+05    -0.314229452578679E+05
     0.945000000000000E+01     0.599679487179487E+01    -0.123047356000569E+05    -0.268409978719887E+05     0.703531022667873E+04     0.262690135492699E+05     0.000000000000000E+00    -0.945746658599374E+04    -0.296882668860518E+05
     0.900000000000000E+01     0.622179487179487E+01    -0.117401273990401E+05    -0.246294661101596E+05     0.737857128970189E+04     0.248720337959166E+05     0.000000000000000E+00    -0.838800761837239E+04    -0.279815858908273E+05
     0.855000000000000E+01     0.644679487179487E+01    -0.111703318409878E+05    -0.224046564396261E+05     0.766394561040203E+04     0.235092680311217E+05     0.000000000000000E+00    -0.728546411424971E+04    -0.262895241663642E+05
     0.810000000000000E+01     0.667179487179487E+01    -0.106070656503014E+05    -0.201575081370433E+05     0.788502316063366E+04     0.221707856103444E+05     0.000000000000000E+00    -0.616402631117247E+04    -0.246005474761722E+05
     0.765000000000000E+01     0.689679487179487E+01    -0.100628959515863E+05    -0.178784489953821E+05     0.803611018005494E+04     0.208501568788968E+05     0.000000000000000E+00    -0.503480182921684E+04    -0.229065431177515E+05
     0.720000000000000E+01     0.712179487179487E+01    -0.955115981675196E+04    -0.155573895362242E+05     0.811233487655353E+04     0.195472719498925E+05     0.000000000000000E+00    -0.390391768905025E+04    -0.212046316639260E+05
     0.675000000000000E+01     0.734679487179487E+01    -0.908588381211134E+04    -0.131837172220591E+05     0.810975312667251E+04     0.182724450710289E+05     0.000000000000000E+00    -0.277022309563138E+04    -0.194993779385391E+05
     0.630000000000000E+01     0.757179487179487E+01    -0.868170354548088E+04    -0.107462906685780E+05     0.802545417603626E+04     0.170523421846383E+05     0.000000000000000E+00    -0.162242465608566E+04    -0.178055695579732E+05
     0.585000000000000E+01     0.779679487179487E+01    -0.835378321328024E+04    -0.823343385697133E+04     0.785766633977634E+04     0.159381167780684E+05     0.000000000000000E+00    -0.435711787322019E+03    -0.161515052829296E+05
     0.540000000000000E+01     0.802179487179487E+01    -0.811773514763211E+04    -0.563293034622355E+04     0.760586270295739E+04     0.150149370270248E+05     0.831333924306500E+03     0.000000000000000E+00    -0.145819994181622E+05
     0.495000000000000E+01     0.824679487179487E+01    -0.798953936346193E+04    -0.293201748540942E+04     0.727086682100303E+04     0.144083486093065E+05     0.223728212452779E+04     0.000000000000000E+00    -0.131588389733991E+05
     0.450000000000000E+01     0.847179487179487E+01    -0.798546310559773E+04    -0.117380625989812E+03     0.685495842012173E+04     0.142763939910910E+05     0.385219347264952E+04     0.000000000000000E+00    -0.119550372042371E+05
     0.405000000000000E+01     0.869679487179487E+01    -0.812198039586987E+04     0.282485266589309E+04     0.636197909773272E+04     0.147754556690637E+05     0.574387717207078E+04     0.000000000000000E+00    -0.110410049020476E+05
     0.360000000000000E+01     0.892179487179487E+01    -0.841569158021085E+04     0.590911839711913E+04     0.579743802289186E+04     0.160094261556536E+05     0.796139369867178E+04     0.000000000000000E+00    -0.104679668817635E+05
     0.315000000000000E+01     0.914679487179487E+01    -0.888324287575508E+04     0.915042193529510E+04     0.516861763671756E+04     0.180019851925895E+05     0.105267543463172E+05     0.000000000000000E+00    -0.102595752867772E+05
     0.270000000000000E+01     0.937179487179487E+01    -0.954124591793867E+04     0.125643437964586E+05     0.448467935281665E+04     0.207150826538169E+05     0.134395254253575E+05     0.000000000000000E+00    -0.104164275468376E+05
     0.118300000000000E+02     0.488461538461538E+01    -0.146294863362647E+05    -0.367031847441699E+05     0.452894077888776E+04     0.329504296611047E+05     0.000000000000000E+00    -0.137364007151874E+05    -0.375962703652472E+05
     0.113750000000000E+02     0.511211538461538E+01    -0.142387049082547E+05    -0.344123344672998E+05     0.506510647816894E+04     0.312078245985713E+05     0.000000000000000E+00    -0.130383971124003E+05    -0.356126422631542E+05
     0.109200000000000E+02     0.533961538461538E+01    -0.137974193662802E+05    -0.321494845471689E+05     0.558367272038430E+04     0.295619759193413E+05     0.000000000000000E+00    -0.122320844856219E+05    -0.337148194278271E+05
     0.104650000000000E+02     0.556711538461538E+01    -0.133120153847738E+05    -0.299078893969357E+05     0.607582232040064E+04     0.280054310556525E+05     0.000000000000000E+00    -0.113254312339916E+05    -0.318944735477179E+05
     0.100100000000000E+02     0.579461538461538E+01    -0.127902259084536E+05    -0.276802927500855E+05     0.653292721186448E+04     0.265290162256452E+05     0.000000000000000E+00    -0.103303282041892E+05    -0.301401904543499E+05
     0.955500000000000E+01     0.602211538461538E+01    -0.122410461293830E+05    -0.254589215439621E+05     0.694666015182619E+04     0.251221879081864E+05     0.000000000000000E+00    -0.926175433984656E+04    -0.284382133334985E+05
     0.910000000000000E+01     0.624961538461538E+01    -0.116746484640308E+05    -0.232354798032996E+05     0.730910642536416E+04     0.237736827198381E+05     0.000000000000000E+00    -0.813646756277241E+04    -0.267736607045580E+05
     0.864500000000000E+01     0.647711538461538E+01    -0.111022975303309E+05    -0.210011425237535E+05     0.761287555020887E+04     0.224725540917873E+05     0.000000000000000E+00    -0.697137547444288E+04    -0.251320645796415E+05
     0.819000000000000E+01     0.670461538461538E+01    -0.105362651247424E+05    -0.187465495554324E+05     0.785121298136708E+04     0.212097152870883E+05     0.000000000000000E+00    -0.578173816528209E+04    -0.235010765148926E+05
     0.773500000000000E+01     0.693211538461538E+01    -0.998974519930918E+04    -0.164617994864297E+05     0.801811181574597E+04     0.199801656738977E+05     0.000000000000000E+00    -0.457927080966748E+04    -0.218722738760714E+05
     0.728000000000000E+01     0.715961538461538E+01    -0.947676883872027E+04    -0.141364435263549E+05     0.810842449677723E+04     0.187861656320624E+05     0.000000000000000E+00    -0.337009684107514E+04    -0.202431155240000E+05
     0.682500000000000E+01     0.738711538461538E+01    -0.901211923736926E+04    -0.117594793898651E+05     0.811797451904125E+04     0.176417218296226E+05     0.000000000000000E+00    -0.215242168085408E+04    -0.186191769463802E+05
     0.637000000000000E+01     0.761461538461538E+01    -0.861124667641450E+04    -0.931934518019677E+04     0.804366813289122E+04     0.165787326052584E+05     0.000000000000000E+00    -0.913839668419833E+03    -0.170167521881914E+05
     0.591500000000000E+01     0.784211538461538E+01    -0.829018350083887E+04    -0.680391327269722E+04     0.788360604907727E+04     0.156546613427649E+05     0.371505403843771E+03     0.000000000000000E+00    -0.154656021773799E+05
     0.546000000000000E+01     0.806961538461539E+01    -0.806545909650972E+04    -0.420048419835576E+04     0.763719514337064E+04     0.149598500468590E+05     0.174492511495024E+04     0.000000000000000E+00    -0.140108684098157E+05
     0.500500000000000E+01     0.829711538461538E+01    -0.795401486723873E+04    -0.149578052733574E+04     0.730526016118778E+04     0.146187116193449E+05     0.326221841053998E+04     0.000000000000000E+00    -0.127120138051144E+05
     0.455000000000000E+01     0.852461538461538E+01    -0.797311921184186E+04     0.132405924749424E+04     0.689015542221449E+04     0.147750929035233E+05     0.498712590389712E+04     0.000000000000000E+00    -0.116361858682447E+05
     0.409500000000000E+01     0.875211538461538E+01    -0.814028250119917E+04     0.427348682702862E+04     0.639587652503009E+04     0.155575058562604E+05     0.697910202305740E+04     0.000000000000000E+00    -0.108458976972280E+05
     0.364000000000000E+01     0.897961538461539E+01    -0.847317205531480E+04     0.736755022239353E+04     0.582817205173150E+04     0.170412655050241E+05     0.928079015509273E+04     0.000000000000000E+00    -0.103864119880140E+05
     0.318500000000000E+01     0.920711538461538E+01    -0.898952712037678E+04     0.106218998714153E+05     0.519465527255744E+04     0.192373475794483E+05     0.119128732938885E+05     0.000000000000000E+00    -0.102805005428500E+05
     0.273000000000000E+01     0.943461538461538E+01    -0.970707384581700E+04     0.140527947550885E+05     0.450491585051253E+04     0.221134040790905E+05     0.148782571742692E+05     0.000000000000000E+00    -0.105325362649977E+05
     0.119600000000000E+02     0.489743589743590E+01    -0.145417479858244E+05    -0.354221558883208E+05     0.433879732412037E+04     0.317421956530509E+05     0.000000000000000E+00    -0.136760675946847E+05    -0.362878362794606E+05
     0.115000000000000E+02     0.512743589743590E+01    -0.141589449132988E+05    -0.331029054533922E+05     0.489214041821625E+04     0.299895810131447E+05     0.000000000000000E+00    -0.129701818646224E+05    -0.342916685020686E+05
     0.110400000000000E+02     0.535743589743590E+01    -0.137232863445506E+05    -0.308152417720377E+05     0.542919205399174E+04     0.283451884105013E+05     0.000000000000000E+00    -0.121445486823970E+05    -0.323939794341913E+05
     0.105800000000000E+02     0.558743589743590E+01    -0.132412824735041E+05    -0.285522651035053E+05     0.594070842193526E+04     0.268024410502746E+05     0.000000000000000E+00    -0.112066466568051E+05    -0.305869009202044E+05
     0.101200000000000E+02     0.581743589743590E+01    -0.127208906631005E+05    -0.263065355964485E+05     0.641763583139984E+04     0.253529181810652E+05     0.000000000000000E+00    -0.101687419298072E+05    -0.288586843297418E+05
     0.966000000000000E+01     0.604743589743590E+01    -0.121714256469600E+05    -0.240700668289198E+05     0.685122868922709E+04     0.239867191245250E+05     0.000000000000000E+00    -0.904695154958896E+04    -0.271945409262909E+05
     0.920000000000000E+01     0.627743589743590E+01    -0.116034697310455E+05    -0.218343193483652E+05     0.723316747837125E+04     0.226931770111514E+05     0.000000000000000E+00    -0.785964610977522E+04    -0.255781429696356E+05
     0.874000000000000E+01     0.650743589743590E+01    -0.110287829953254E+05    -0.195901942116180E+05     0.755567673652319E+04     0.214620249662325E+05     0.000000000000000E+00    -0.662544050074604E+04    -0.239935367061973E+05
     0.828000000000000E+01     0.673743589743590E+01    -0.104602134954363E+05    -0.173280265248928E+05     0.781164303473445E+04     0.202851426768184E+05     0.000000000000000E+00    -0.536103845342266E+04    -0.224272015669064E+05
     0.782000000000000E+01     0.696743589743590E+01    -0.991160746434638E+04    -0.150375789837797E+05     0.799473295604125E+04     0.191590560632461E+05     0.000000000000000E+00    -0.407907947903692E+04    -0.208701069690891E+05
     0.736000000000000E+01     0.719743589743590E+01    -0.939771951401821E+04    -0.127080354132386E+05     0.809951107408850E+04     0.180884212317799E+05     0.000000000000000E+00    -0.278597795550323E+04    -0.193197769717536E+05
     0.690000000000000E+01     0.742743589743590E+01    -0.893412283707174E+04    -0.103279943075929E+05     0.812155793175390E+04     0.170907447818241E+05     0.000000000000000E+00    -0.147965239560930E+04    -0.177824647490553E+05
     0.644000000000000E+01     0.765743589743590E+01    -0.853711940844730E+04    -0.788546237052369E+04     0.805758801977182E+04     0.162024061432913E+05     0.000000000000000E+00    -0.147117719213213E+03    -0.162754640597578E+05
     0.598000000000000E+01     0.788743589743590E+01    -0.822365018706858E+04    -0.536784805506392E+04     0.790556775535747E+04     0.154852483054999E+05     0.123773723224501E+04     0.000000000000000E+00    -0.148292354743775E+05
     0.552000000000000E+01     0.811743589743590E+01    -0.801120531750567E+04    -0.276195510359248E+04     0.766483346083081E+04     0.150309757889398E+05     0.271516830037982E+04     0.000000000000000E+00    -0.134883287214780E+05
     0.506000000000000E+01     0.834743589743590E+01    -0.791773433163798E+04    -0.539760878280213E+02     0.733620934224066E+04     0.149574718646003E+05     0.433758403990722E+04     0.000000000000000E+00    -0.123092944593732E+05
     0.460000000000000E+01     0.857743589743590E+01    -0.796155635031729E+04     0.277051405117667E+04     0.692212546798865E+04     0.153904903868774E+05     0.616291220179069E+04     0.000000000000000E+00    -0.113539545009313E+05
     0.414000000000000E+01     0.880743589743590E+01    -0.816127028503068E+04     0.572656446304073E+04     0.642673574745327E+04     0.164330371722635E+05     0.824419669068385E+04     0.000000000000000E+00    -0.106789025126738E+05
     0.368000000000000E+01     0.903743589743590E+01    -0.853566503956356E+04     0.882985484806148E+04     0.585603590961392E+04     0.181403436395385E+05     0.106200828645477E+05     0.000000000000000E+00    -0.103258930560498E+05
     0.322000000000000E+01     0.926743589743590E+01    -0.910362971166266E+04     0.120967019172196E+05     0.521798148167490E+04     0.205185808090414E+05     0.133113931072770E+05     0.000000000000000E+00    -0.103183209017201E+05
     0.276000000000000E+01     0.949743589743590E+01    -0.988406379469900E+04     0.155440658521854E+05     0.452260576768942E+04     0.235438554110531E+05     0.163244964718722E+05     0.000000000000000E+00    -0.106644944143857E+05
     0.120900000000000E+02     0.491025641025641E+01    -0.144460356662706E+05    -0.341387576667267E+05     0.414141105049246E+04     0.305356654931634E+05     0.000000000000000E+00    -0.136105377254738E+05    -0.349742556075235E+05
     0.116250000000000E+02     0.514275641025641E+01    -0.140716598799799E+05    -0.317899555715817E+05     0.471179015854643E+04     0.287728751450481E+05     0.000000000000000E+00    -0.128965929058792E+05    -0.329650225456824E+05
     0.111600000000000E+02     0.537525641025641E+01    -0.136420316955055E+05    -0.294764710216129E+05     0.526730595975789E+04     0.271308303769305E+05     0.000000000000000E+00    -0.120499464803493E+05    -0.310685562367690E+05
     0.106950000000000E+02     0.560775641025641E+01    -0.131637822358139E+05    -0.271912517053437E+05     0.579827232312511E+04     0.256040915028496E+05     0.000000000000000E+00    -0.110773830780052E+05    -0.292776508631524E+05
     0.102300000000000E+02     0.584025641025641E+01    -0.126450951955343E+05    -0.249266744290994E+05     0.629519385816829E+04     0.241852384042446E+05     0.000000000000000E+00    -0.999163880543799E+04    -0.275801308191957E+05
     0.976500000000000E+01     0.607275641025641E+01    -0.120956120550230E+05    -0.226745382981981E+05     0.674889044634737E+04     0.228652283174846E+05     0.000000000000000E+00    -0.881034822052425E+04    -0.259598021326969E+05
     0.930000000000000E+01     0.630525641025641E+01    -0.115263372944286E+05    -0.204260578981415E+05     0.715062177247992E+04     0.216341589841817E+05     0.000000000000000E+00    -0.755404535121717E+04    -0.243983498413529E+05
     0.883500000000000E+01     0.653775641025641E+01    -0.109495436077559E+05    -0.181718564758063E+05     0.749221185615894E+04     0.204825548595002E+05     0.000000000000000E+00    -0.624362788334878E+04    -0.228777722002134E+05
     0.837000000000000E+01     0.677025641025641E+01    -0.103786771169312E+05    -0.159019591206354E+05     0.776617358317072E+04     0.194033064116396E+05     0.000000000000000E+00    -0.489773884121187E+04    -0.213828973963547E+05
     0.790500000000000E+01     0.700275641025641E+01    -0.982826258586656E+04    -0.136057859458283E+05     0.796583323691272E+04     0.183944126618019E+05     0.000000000000000E+00    -0.353033263600893E+04    -0.199037158956859E+05
     0.744000000000000E+01     0.723525641025641E+01    -0.931380863452483E+04    -0.112721452695327E+05     0.808545502981132E+04     0.174626869477268E+05     0.000000000000000E+00    -0.214844789056028E+04    -0.184375060134972E+05
     0.697500000000000E+01     0.746775641025641E+01    -0.885171295298397E+04    -0.888922679603542E+04     0.812036563473979E+04     0.166285088142770E+05     0.000000000000000E+00    -0.750082576851532E+03    -0.169908571721679E+05
     0.651000000000000E+01     0.770025641025641E+01    -0.845916751550188E+04    -0.644459479695314E+04     0.806707871643599E+04     0.159313429203819E+05     0.677841153098608E+03     0.000000000000000E+00    -0.155816034655536E+05
     0.604500000000000E+01     0.793275641025641E+01    -0.815406379458103E+04    -0.392518129242409E+04     0.792341946292034E+04     0.154347450201461E+05     0.216107485303922E+04     0.000000000000000E+00    -0.142403199400443E+05
     0.558000000000000E+01     0.816525641025641E+01    -0.795489797503314E+04    -0.131727923229864E+04     0.768864911691362E+04     0.152276977971234E+05     0.373826634979122E+04     0.000000000000000E+00    -0.130104435571230E+05
     0.511500000000000E+01     0.839775641025641E+01    -0.788067616804379E+04     0.139346432267007E+04     0.736358950725474E+04     0.154173795457227E+05     0.545839792078085E+04     0.000000000000000E+00    -0.119456097661546E+05
     0.465000000000000E+01     0.863025641025641E+01    -0.795081962523715E+04     0.422205501963379E+04     0.695074758031872E+04     0.161105169062549E+05     0.737453598914365E+04     0.000000000000000E+00    -0.111033005947470E+05
     0.418500000000000E+01     0.886275641025641E+01    -0.818506995274058E+04     0.718415803245944E+04     0.645443993143441E+04     0.173893564371807E+05     0.953513505602579E+04     0.000000000000000E+00    -0.105360469763069E+05
     0.372000000000000E+01     0.909525641025641E+01    -0.860339432524932E+04     0.102961048805377E+05     0.588091733630240E+04     0.192967662077723E+05     0.119766273441217E+05     0.000000000000000E+00    -0.102839167888333E+05
     0.325500000000000E+01     0.932775641025641E+01    -0.922589070009115E+04     0.135749002475911E+05     0.523848928241286E+04     0.218394329545631E+05     0.147208503341883E+05     0.000000000000000E+00    -0.103718407866884E+05
     0.279000000000000E+01     0.956025641025641E+01    -0.100726930312910E+05     0.170382288004842E+05     0.453764850046333E+04     0.250030397313151E+05     0.177775492594870E+05     0.000000000000000E+00    -0.108120134902938E+05
     0.122200000000000E+02     0.492307692307692E+01    -0.143420488139933E+05    -0.328532999597884E+05     0.393675003658073E+04     0.293316220700170E+05     0.000000000000000E+00    -0.135396126652572E+05    -0.336557361085246E+05
     0.117500000000000E+02     0.515807692307692E+01    -0.139765545975592E+05    -0.304737488944427E+05     0.452399588873227E+04     0.275585749139612E+05     0.000000000000000E+00    -0.128173946424960E+05    -0.316329088495059E+05
     0.112800000000000E+02     0.539307692307692E+01    -0.135533665026641E+05    -0.281333928790674E+05     0.509793164114862E+04     0.259199937276908E+05     0.000000000000000E+00    -0.119476953831816E+05    -0.297390639985499E+05
     0.108100000000000E+02     0.562807692307692E+01    -0.130792326126528E+05    -0.258250288952685E+05     0.564841274103135E+04     0.244118942834589E+05     0.000000000000000E+00    -0.109363573180048E+05    -0.279679041899164E+05
     0.103400000000000E+02     0.586307692307692E+01    -0.125625647052370E+05    -0.235408508849037E+05     0.616548559307207E+04     0.230281538056297E+05     0.000000000000000E+00    -0.979677566578884E+04    -0.263066399243519E+05
     0.987000000000000E+01     0.609807692307692E+01    -0.120133382597657E+05    -0.212724425567021E+05     0.663951893164794E+04     0.217608293812018E+05     0.000000000000000E+00    -0.854869713533151E+04    -0.247370836811363E+05
     0.940000000000000E+01     0.633307692307692E+01    -0.114429924644948E+05    -0.190107701928826E+05     0.706133519301722E+04     0.206009398798237E+05     0.000000000000000E+00    -0.721562239861325E+04    -0.232381402587642E+05
     0.893000000000000E+01     0.656807692307692E+01    -0.108643302238579E+05    -0.167461754557739E+05     0.742234188751479E+04     0.195398454639712E+05     0.000000000000000E+00    -0.582150779577738E+04    -0.217889978838544E+05
     0.846000000000000E+01     0.680307692307692E+01    -0.102914181657357E+05    -0.144683681944334E+05     0.771466297174763E+04     0.185713492538895E+05     0.000000000000000E+00    -0.438753729128597E+04    -0.203722490688831E+05
     0.799000000000000E+01     0.703807692307692E+01    -0.973948664872655E+04    -0.121664192512666E+05     0.793127022079037E+04     0.176946269150661E+05     0.000000000000000E+00    -0.292939091187946E+04    -0.189765149881137E+05
     0.752000000000000E+01     0.727307692307692E+01    -0.922482976941628E+04    -0.982875326864628E+04     0.806611460038078E+04     0.169180351572281E+05     0.000000000000000E+00    -0.145502680214895E+04    -0.175985562359136E+05
     0.705000000000000E+01     0.750807692307692E+01    -0.876470536964848E+04    -0.744314149553175E+04     0.811425763911529E+04     0.162636713077993E+05     0.371950287936452E+02     0.000000000000000E+00    -0.162450418939739E+05
     0.658000000000000E+01     0.774307692307692E+01    -0.837723504379449E+04    -0.499669459408819E+04     0.807200280064454E+04     0.157720710887846E+05     0.156010997438013E+04     0.000000000000000E+00    -0.149340396122628E+05
     0.611000000000000E+01     0.797807692307692E+01    -0.808130414602349E+04    -0.247585544630591E+04     0.793702685586887E+04     0.155054307241271E+05     0.313876296102863E+04     0.000000000000000E+00    -0.136959225533580E+05
     0.564000000000000E+01     0.821307692307692E+01    -0.789646179757261E+04     0.133608039380604E+03     0.770851125513382E+04     0.155463959848932E+05     0.481004314427238E+04     0.000000000000000E+00    -0.125728969024644E+05
     0.517000000000000E+01     0.844807692307692E+01    -0.784282089401704E+04     0.284661012147335E+04     0.738727350042566E+04     0.159891810736945E+05     0.661988746461498E+04     0.000000000000000E+00    -0.116160982371587E+05
     0.470000000000000E+01     0.868307692307692E+01    -0.794095811254008E+04     0.567875441879095E+04     0.697589851756695E+04     0.169230995638285E+05     0.861760588730317E+04     0.000000000000000E+00    -0.108798095810523E+05
     0.423000000000000E+01     0.891807692307692E+01    -0.821181391920327E+04     0.864634110385051E+04     0.647887002841198E+04     0.184152794464189E+05     0.108485901577332E+05     0.000000000000000E+00    -0.104140629730860E+05
     0.376000000000000E+01     0.915307692307692E+01    -0.867659257621646E+04     0.117663740962475E+05     0.590270192304233E+04     0.205024028400538E+05     0.133483060109145E+05     0.000000000000000E+00    -0.102585244908835E+05
     0.329000000000000E+01     0.938807692307692E+01    -0.935666214920788E+04     0.150565682560366E+05     0.525606963196240E+04     0.231949434241484E+05     0.161400893462041E+05     0.000000000000000E+00    -0.104401832393753E+05
     0.282000000000000E+01     0.962307692307692E+01    -0.102734545144943E+05     0.185353565771130E+05     0.454994149829489E+04     0.264883249134545E+05     0.192368726108055E+05     0.000000000000000E+00    -0.109749705481867E+05
     0.123500000000000E+02     0.493589743589744E+01    -0.142294815212968E+05    -0.315660970708558E+05     0.372478430656930E+04     0.281309347173856E+05     0.000000000000000E+00    -0.134630885690385E+05    -0.323324900231141E+05
     0.118750000000000E+02     0.517339743589744E+01    -0.138733284550657E+05    -0.291545534517919E+05     0.432869893228492E+04     0.263476647302402E+05     0.000000000000000E+00    -0.127323355309273E+05    -0.302955463759303E+05
     0.114000000000000E+02     0.541089743589744E+01    -0.134569964625661E+05    -0.267862314045834E+05     0.492098673142858E+04     0.247139445784994E+05     0.000000000000000E+00    -0.118370960570915E+05    -0.284061318100579E+05
     0.109250000000000E+02     0.564839743589744E+01    -0.129873462276335E+05    -0.244537793583705E+05     0.549102821976424E+04     0.232276335551800E+05     0.000000000000000E+00    -0.107819758220314E+05    -0.266591497639726E+05
     0.104500000000000E+02     0.588589743589744E+01    -0.124730191928212E+05    -0.221492091127769E+05     0.602839465569573E+04     0.218842589116239E+05     0.000000000000000E+00    -0.958138550513079E+04    -0.250408428004674E+05
     0.997500000000000E+01     0.612339743589744E+01    -0.119243321335331E+05    -0.198638882536740E+05     0.652298655061355E+04     0.206772390082312E+05     0.000000000000000E+00    -0.825811049574459E+04    -0.235301098914625E+05
     0.950000000000000E+01     0.636089743589744E+01    -0.113531717321553E+05    -0.175885325689450E+05     0.696517217924154E+04     0.195986281661817E+05     0.000000000000000E+00    -0.683976083424928E+04    -0.221019434668511E+05
     0.902500000000000E+01     0.659839743589744E+01    -0.107728891521894E+05    -0.153131984642507E+05     0.734592608998365E+04     0.186405388502733E+05     0.000000000000000E+00    -0.535433570595732E+04    -0.207317519104827E+05
     0.855000000000000E+01     0.683589743589744E+01    -0.101981946123841E+05    -0.130272753787928E+05     0.765696761527066E+04     0.177973550492432E+05     0.000000000000000E+00    -0.382620319015547E+04    -0.193992668010215E+05
     0.807500000000000E+01     0.707339743589744E+01    -0.964505196086839E+04    -0.107194782010792E+05     0.789089938190691E+04     0.170687783732344E+05     0.000000000000000E+00    -0.227310008131726E+04    -0.180914300806304E+05
     0.760000000000000E+01     0.731089743589744E+01    -0.913057324928326E+04    -0.837783968468854E+04     0.804134582141700E+04     0.164636209440673E+05     0.000000000000000E+00    -0.704057737028330E+03    -0.168043551969435E+05
     0.712500000000000E+01     0.754839743589744E+01    -0.867291330691454E+04    -0.598970286403387E+04     0.810309168039255E+04     0.160040018838186E+05     0.882095554372249E+03     0.000000000000000E+00    -0.155447117253207E+05
     0.665000000000000E+01     0.778589743589744E+01    -0.829116431482516E+04    -0.354171347012889E+04     0.807222053083893E+04     0.157290954780797E+05     0.249783856491907E+04     0.000000000000000E+00    -0.143307163498731E+05
     0.617500000000000E+01     0.802339743589744E+01    -0.800525037998755E+04    -0.101981234635061E+04     0.794625328052197E+04     0.156967837880739E+05     0.416744716956081E+04     0.000000000000000E+00    -0.131925098958990E+05
     0.570000000000000E+01     0.826089743589744E+01    -0.783582210941609E+04     0.159077213579445E+04     0.772428668331470E+04     0.159809100457150E+05     0.592621937536408E+04     0.000000000000000E+00    -0.121712693489857E+05
     0.522500000000000E+01     0.849839743589744E+01    -0.780415118429945E+04     0.430553166090668E+04     0.740713184954407E+04     0.166625389815168E+05     0.781764936277990E+04     0.000000000000000E+00    -0.113162688861727E+05
     0.475000000000000E+01     0.873589743589744E+01    -0.793202493413308E+04     0.714068555392863E+04     0.699745275633770E+04     0.178168330751538E+05     0.988834681325917E+04     0.000000000000000E+00    -0.106796861934636E+05
     0.427500000000000E+01     0.897339743589744E+01    -0.824164091085157E+04     0.101131883643804E+05     0.649990475797057E+04     0.195011993566537E+05     0.121818264250856E+05     0.000000000000000E+00    -0.103102789715567E+05
     0.380000000000000E+01     0.921089743589744E+01    -0.875550146296103E+04     0.132407374505947E+05     0.592127309621178E+04     0.217506242545501E+05     0.147334188754848E+05     0.000000000000000E+00    -0.102481828878511E+05
     0.332500000000000E+01     0.944839743589744E+01    -0.949630830967156E+04     0.165417805639528E+05     0.527061141067128E+04     0.245811769020816E+05     0.175681931396407E+05     0.000000000000000E+00    -0.105227208853595E+05
     0.285000000000000E+01     0.968589743589744E+01    -0.104868571150296E+05     0.200355234331200E+05     0.455938024914658E+04     0.279976764683613E+05     0.207020409928116E+05     0.000000000000000E+00    -0.111533746747212E+05
     0.124800000000000E+02     0.494871794871795E+01    -0.141080224982420E+05    -0.302774677426194E+05     0.350548585767451E+04     0.269345771993670E+05     0.000000000000000E+00    -0.133807549379528E+05    -0.310047353029086E+05
     0.120000000000000E+02     0.518871794871795E+01    -0.137616754013535E+05    -0.278326412470373E+05     0.412584176588158E+04     0.251412721449359E+05     0.000000000000000E+00    -0.126411427384640E+05    -0.289531739099268E+05
     0.115200000000000E+02     0.542871794871795E+01    -0.133526218441205E+05    -0.254352141509847E+05     0.473638930569315E+04     0.235141656007920E+05     0.000000000000000E+00    -0.117172883419969E+05    -0.270705476531084E+05
     0.110400000000000E+02     0.566871794871795E+01    -0.128878303465667E+05    -0.230776887863943E+05     0.532601713628431E+04     0.220534334855510E+05     0.000000000000000E+00    -0.106122261874145E+05    -0.253532929455465E+05
     0.105600000000000E+02     0.590871794871795E+01    -0.123761734205302E+05    -0.207518957864044E+05     0.588380398479276E+04     0.207566672228926E+05     0.000000000000000E+00    -0.934203137589845E+04    -0.237860378310361E+05
     0.100800000000000E+02     0.614871794871795E+01    -0.118283164770152E+05    -0.184489860934611E+05     0.639916460178183E+04     0.196189101421494E+05     0.000000000000000E+00    -0.793395669467918E+04    -0.223433458757972E+05
     0.960000000000000E+01     0.638871794871795E+01    -0.112566067335429E+05    -0.161594229674202E+05     0.686199571670365E+04     0.186332721779235E+05     0.000000000000000E+00    -0.642128808382891E+04    -0.209947416171342E+05
     0.912000000000000E+01     0.662871794871795E+01    -0.106749621215020E+05    -0.138729739936481E+05     0.726282199336213E+04     0.177923158062956E+05     0.000000000000000E+00    -0.483720778909381E+04    -0.197107283260563E+05
     0.864000000000000E+01     0.686871794871795E+01    -0.100987601935006E+05    -0.115787030911245E+05     0.759294198537613E+04     0.170903212617288E+05     0.000000000000000E+00    -0.320981784424503E+04    -0.184676454403800E+05
     0.816000000000000E+01     0.710871794871795E+01    -0.954472703071632E+04    -0.926496252054372E+04     0.784457409164248E+04     0.165263981080986E+05     0.000000000000000E+00    -0.155902361245300E+04    -0.172506659388070E+05
     0.768000000000000E+01     0.734871794871795E+01    -0.903082615024826E+04    -0.691938489241668E+04     0.801100251179912E+04     0.161082100168671E+05     0.105161014517087E+03     0.000000000000000E+00    -0.160553720571820E+05
     0.720000000000000E+01     0.758871794871795E+01    -0.857614741246737E+04    -0.452887517517252E+04     0.808672320168814E+04     0.158557872746794E+05     0.178356663776249E+04     0.000000000000000E+00    -0.148885892254024E+05
     0.672000000000000E+01     0.782871794871795E+01    -0.820079592836781E+04    -0.207960270326011E+04     0.806758982881887E+04     0.158044747087275E+05     0.348843077654935E+04     0.000000000000000E+00    -0.137688294081773E+05
     0.624000000000000E+01     0.806871794871795E+01    -0.792578096691794E+04     0.443006814749649E+03     0.795095972783098E+04     0.160055838923421E+05     0.524342860523271E+04     0.000000000000000E+00    -0.127262027574010E+05
     0.576000000000000E+01     0.830871794871795E+01    -0.777290486241130E+04     0.305427928806221E+04     0.773583985595754E+04     0.165232245379038E+05     0.708262543726261E+04     0.000000000000000E+00    -0.118012510116117E+05
     0.528000000000000E+01     0.854871794871795E+01    -0.776465192181775E+04     0.577030023555798E+04     0.742303274848814E+04     0.174268414419923E+05     0.904773070998149E+04     0.000000000000000E+00    -0.110420823962413E+05
     0.480000000000000E+01     0.878871794871795E+01    -0.792407733213447E+04     0.860792277769005E+04     0.701528247423193E+04     0.187813670016742E+05     0.111835529092892E+05     0.000000000000000E+00    -0.104997074637336E+05
     0.432000000000000E+01     0.902871794871795E+01    -0.827469606773698E+04     0.115847756283830E+05     0.651742059098071E+04     0.206390026936965E+05     0.135325995116814E+05     0.000000000000000E+00    -0.102225199510354E+05
     0.384000000000000E+01     0.926871794871795E+01    -0.884037179773026E+04     0.147192710869305E+05     0.593651210097207E+04     0.230360472222919E+05     0.161305970222233E+05     0.000000000000000E+00    -0.102516977330230E+05
     0.336000000000000E+01     0.950871794871795E+01    -0.964520579329972E+04     0.180306130298940E+05     0.528200140635238E+04     0.259950108838540E+05     0.190044312602796E+05     0.000000000000000E+00    -0.106190240236854E+05
     0.288000000000000E+01     0.974871794871795E+01    -0.107134258350623E+05     0.215388049030006E+05     0.456585826463994E+04     0.295295307066573E+05     0.221727211147297E+05     0.000000000000000E+00    -0.113473420467915E+05
     0.126100000000000E+02     0.496153846153846E+01    -0.139773550344886E+05    -0.289877351735034E+05     0.327882868756961E+04     0.257436503000411E+05     0.000000000000000E+00    -0.132923927524300E+05    -0.296726974555620E+05
     0.121250000000000E+02     0.520403846153846E+01    -0.136412839051586E+05    -0.265082882735277E+05     0.391536803859327E+04     0.239407019159322E+05     0.000000000000000E+00    -0.125435141362435E+05    -0.276060580424428E+05
     0.116400000000000E+02     0.544653846153846E+01    -0.132399374479549E+05    -0.240805721793687E+05     0.454405789290045E+04     0.223224106482215E+05     0.000000000000000E+00    -0.115871859974396E+05    -0.257333236298840E+05
     0.111550000000000E+02     0.568903846153846E+01    -0.127803868369966E+05    -0.216969458921160E+05     0.515327770620361E+04     0.208918453090632E+05     0.000000000000000E+00    -0.104245246384757E+05    -0.240528080906370E+05
     0.106700000000000E+02     0.593153846153846E+01    -0.122717368727382E+05    -0.193490601169597E+05     0.573159583877207E+04     0.196491386928386E+05     0.000000000000000E+00    -0.907442663216805E+04    -0.225463703575299E+05
     0.101850000000000E+02     0.617403846153846E+01    -0.117250089814400E+05    -0.170278488462851E+05     0.626792327277220E+04     0.185911908642121E+05     0.000000000000000E+00    -0.757077759959385E+04    -0.211820802281312E+05
     0.970000000000000E+01     0.641653846153846E+01    -0.111530242146377E+05    -0.147235209427671E+05     0.675166732960775E+04     0.177120091371382E+05     0.000000000000000E+00    -0.595456844328195E+04    -0.199219767141228E+05
     0.921500000000000E+01     0.665903846153846E+01    -0.105702862486131E+05    -0.124255517224646E+05     0.717288538726002E+04     0.170039555050632E+05     0.000000000000000E+00    -0.426529931674771E+04    -0.187305386543300E+05
     0.873000000000000E+01     0.690153846153846E+01    -0.999286438386391E+04    -0.101226745379150E+05     0.752243859762815E+04     0.164600307381465E+05     0.000000000000000E+00    -0.253505086159907E+04    -0.175804880601798E+05
     0.824500000000000E+01     0.714403846153846E+01    -0.943827654457385E+04    -0.780287236122927E+04     0.779214560386936E+04     0.160770897044800E+05     0.000000000000000E+00    -0.785641790611096E+03    -0.164555071151920E+05
     0.776000000000000E+01     0.738653846153846E+01    -0.892537227808294E+04    -0.545336936718525E+04     0.797493625773919E+04     0.158596021680972E+05     0.972326878722140E+03     0.000000000000000E+00    -0.153510685239903E+05
     0.727500000000000E+01     0.762903846153846E+01    -0.847421575435753E+04    -0.306062251632361E+04     0.806500533693177E+04     0.158232834944923E+05     0.273969900310441E+04     0.000000000000000E+00    -0.142745372737855E+05
     0.679000000000000E+01     0.787153846153846E+01    -0.810596876546047E+04    -0.610313138041034E+03     0.805796626242003E+04     0.159976402440446E+05     0.452876141113788E+04     0.000000000000000E+00    -0.132450433146394E+05
     0.630500000000000E+01     0.811403846153846E+01    -0.784277372502121E+04     0.191266148631446E+04     0.795100481579600E+04     0.164263013991365E+05     0.636289149099764E+04     0.000000000000000E+00    -0.122930037297044E+05
     0.582000000000000E+01     0.835653846153846E+01    -0.770763666770594E+04     0.452419654034919E+04     0.774303285661101E+04     0.171642230799722E+05     0.827534605173697E+04     0.000000000000000E+00    -0.114587861790937E+05
     0.533500000000000E+01     0.859903846153846E+01    -0.772431024868773E+04     0.724098808952951E+04     0.743484203971597E+04     0.182718128358369E+05     0.103066522805505E+05     0.000000000000000E+00    -0.107899744397088E+05
     0.485000000000000E+01     0.884153846153846E+01    -0.791717674311666E+04     0.100805414980873E+05     0.702925753260160E+04     0.198075697035753E+05     0.125005232526389E+05     0.000000000000000E+00    -0.103371584976682E+05
     0.436500000000000E+01     0.908403846153846E+01    -0.831113104558990E+04     0.130611798459249E+05     0.653129173273869E+04     0.218219112505868E+05     0.148990688710655E+05     0.000000000000000E+00    -0.101490200707305E+05
     0.388000000000000E+01     0.932653846153846E+01    -0.893146366962194E+04     0.162020523455216E+05     0.594829798491834E+04     0.243543082870011E+05     0.175387347660688E+05     0.000000000000000E+00    -0.102681460901691E+05
     0.339500000000000E+01     0.956903846153846E+01    -0.980374374711458E+04     0.195231427588383E+05     0.529012429859221E+04     0.274339685184393E+05     0.204482203827063E+05     0.000000000000000E+00    -0.107288213709826E+05
     0.291000000000000E+01     0.981153846153846E+01    -0.109537020278272E+05     0.230452778142233E+05     0.456926706521278E+04     0.310826982180501E+05     0.236486529750044E+05     0.000000000000000E+00    -0.115570771886083E+05
     0.127400000000000E+02     0.497435897435897E+01    -0.138371569611373E+05    -0.276972270340576E+05     0.304478882180946E+04     0.245594103592293E+05     0.000000000000000E+00    -0.131977716382846E+05    -0.283366123569104E+05
     0.122500000000000E+02     0.521935897435897E+01    -0.135118369151561E+05    -0.251817745309021E+05     0.369722259111246E+04     0.227474798453780E+05     0.000000000000000E+00    -0.124391059700662E+05    -0.262545054759919E+05
     0.117600000000000E+02     0.546435897435897E+01    -0.131186325657639E+05    -0.227225400747379E+05     0.434391148790330E+04     0.211407756406068E+05     0.000000000000000E+00    -0.114453776846183E+05    -0.243957949558835E+05
     0.112700000000000E+02     0.570935897435897E+01    -0.126647121277364E+05    -0.203117424237232E+05     0.497270798958685E+04     0.197459595159625E+05     0.000000000000000E+00    -0.102155011668808E+05    -0.227609533845788E+05
     0.107800000000000E+02     0.595435897435897E+01    -0.121594137164515E+05    -0.179408538658239E+05     0.557165179618460E+04     0.185662388758604E+05     0.000000000000000E+00    -0.877322640866655E+04    -0.213270411736089E+05
     0.102900000000000E+02     0.619935897435897E+01    -0.116141221907661E+05    -0.156005913590089E+05     0.612913163631479E+04     0.176005077928711E+05     0.000000000000000E+00    -0.716226261555884E+04    -0.200524509342162E+05
     0.980000000000000E+01     0.644435897435898E+01    -0.110421459958927E+05    -0.132809076714451E+05     0.663404707317250E+04     0.168432038820765E+05     0.000000000000000E+00    -0.543370444978800E+04    -0.188893492175498E+05
     0.931000000000000E+01     0.668935897435897E+01    -0.104585940062766E+05    -0.109709825216922E+05     0.707597031050978E+04     0.162853204310113E+05     0.000000000000000E+00    -0.363418155743038E+04    -0.177953949705385E+05
     0.882000000000000E+01     0.693435897435897E+01    -0.988025236847236E+04    -0.865921371889857E+04     0.744530799861574E+04     0.159167831492976E+05     0.000000000000000E+00    -0.179943552349326E+04    -0.167400305638777E+05
     0.833000000000000E+01     0.717935897435897E+01    -0.932546134402069E+04    -0.633320830299563E+04     0.773346304029666E+04     0.157300037908973E+05     0.475202063254737E+02     0.000000000000000E+00    -0.157061898533418E+05
     0.784000000000000E+01     0.742435897435897E+01    -0.881399215232543E+04    -0.397977368489324E+04     0.793299639685610E+04     0.157240153178232E+05     0.189617736576383E+04     0.000000000000000E+00    -0.146899432029825E+05
     0.735000000000000E+01     0.766935897435897E+01    -0.836692381353021E+04    -0.158490878667482E+04     0.803778889407498E+04     0.159083214014283E+05     0.374790065475378E+04     0.000000000000000E+00    -0.136997332549588E+05
     0.686000000000000E+01     0.791435897435897E+01    -0.800651999139533E+04     0.866204818207450E+03     0.804320302819174E+04     0.163054992015411E+05     0.561539772266461E+04     0.000000000000000E+00    -0.127557128958525E+05
     0.637000000000000E+01     0.815935897435897E+01    -0.775610583617453E+04     0.338921176473808E+04     0.794624477188240E+04     0.169516794802374E+05     0.752208396886733E+04     0.000000000000000E+00    -0.118889780403038E+05
     0.588000000000000E+01     0.840435897435897E+01    -0.763994482749183E+04     0.600059175614218E+04     0.774572538024068E+04     0.178943799372469E+05     0.950080413328964E+04     0.000000000000000E+00    -0.111401572046393E+05
     0.539000000000000E+01     0.864935897435898E+01    -0.768311561721836E+04     0.871766842369147E+04     0.744242319675812E+04     0.191879090018610E+05     0.115913945319538E+05     0.000000000000000E+00    -0.105568417254807E+05
     0.490000000000000E+01     0.889435897435897E+01    -0.791138887234914E+04     0.115586181865081E+05     0.703924545930417E+04     0.208875412981155E+05     0.138369934638233E+05     0.000000000000000E+00    -0.101897641496644E+05
     0.441000000000000E+01     0.913935897435897E+01    -0.835110411787990E+04     0.145424791113708E+05     0.654139010610630E+04     0.230442997169424E+05     0.162797241619297E+05     0.000000000000000E+00    -0.100883491684388E+05
     0.392000000000000E+01     0.938435897435897E+01    -0.902904657968394E+04     0.176891597725182E+05     0.595650758173011E+04     0.257018725164324E+05     0.189569366547523E+05     0.000000000000000E+00    -0.102968234619180E+05
     0.343000000000000E+01     0.962935897435897E+01    -0.997232402738886E+04     0.210194481114554E+05     0.529486264305944E+04     0.288960880412612E+05     0.218990942619453E+05     0.000000000000000E+00    -0.108519701778788E+05
     0.294000000000000E+01     0.987435897435897E+01    -0.112082436172534E+05     0.245550202967575E+05     0.456949616527647E+04     0.326562900814524E+05     0.251296354298371E+05     0.000000000000000E+00    -0.117828587503331E+05
     0.128700000000000E+02     0.498717948717949E+01    -0.136871006125718E+05    -0.264062754833506E+05     0.280334434125532E+04     0.233833055239054E+05     0.000000000000000E+00    -0.130966454693858E+05    -0.269967306265366E+05
     0.123750000000000E+02     0.523467948717949E+01    -0.133730118200171E+05    -0.238533840414391E+05     0.347135147498086E+04     0.215634095592900E+05     0.000000000000000E+00    -0.123275132792570E+05    -0.248988825821992E+05
     0.118800000000000E+02     0.548217948717949E+01    -0.129883909396584E+05    -0.213613559616321E+05     0.413586956348124E+04     0.199717910220508E+05     0.000000000000000E+00    -0.112899730384947E+05    -0.230597738627958E+05
     0.113850000000000E+02     0.572967948717949E+01    -0.125404971684034E+05    -0.189222731791937E+05     0.478420589675264E+04     0.186195503829416E+05     0.000000000000000E+00    -0.998069892557591E+04    -0.214820714220212E+05
     0.108900000000000E+02     0.597717948717949E+01    -0.120389027618083E+05    -0.165274313573044E+05     0.540385275620989E+04     0.175135348173356E+05     0.000000000000000E+00    -0.843181278477998E+04    -0.201345213343327E+05
     0.103950000000000E+02     0.622467948717949E+01    -0.114953634638766E+05    -0.141673305659061E+05     0.598265764627941E+04     0.166545669382324E+05     0.000000000000000E+00    -0.670133522361664E+04    -0.189613588061661E+05
     0.990000000000000E+01     0.647217948717949E+01    -0.109236889368595E+05    -0.118316659605464E+05     0.650899352599203E+04     0.160365473527689E+05     0.000000000000000E+00    -0.485287076265529E+04    -0.179024841347506E+05
     0.940500000000000E+01     0.671967948717949E+01    -0.103396131910550E+05    -0.950931846122260E+04     0.697192904057600E+04     0.156472185252993E+05     0.000000000000000E+00    -0.294018763283753E+04    -0.169087440194401E+05
     0.891000000000000E+01     0.696717948717949E+01    -0.976066501460806E+04    -0.718834543122741E+04     0.736139875304978E+04     0.154709545473688E+05     0.000000000000000E+00    -0.100159423648388E+04    -0.159474162093516E+05
     0.841500000000000E+01     0.721467948717949E+01    -0.920603840330983E+04    -0.485597135599228E+04     0.766837337581505E+04     0.154931982752924E+05     0.939862140940152E+03     0.000000000000000E+00    -0.150018719002423E+05
     0.792000000000000E+01     0.746217948717949E+01    -0.869646299039765E+04    -0.249857852193245E+04     0.788503000224951E+04     0.157055296611784E+05     0.287461835432443E+04     0.000000000000000E+00    -0.140696598666545E+05
     0.742500000000000E+01     0.770967948717949E+01    -0.825407447635455E+04    -0.101697695291514E+03     0.800492233829985E+04     0.161101524653884E+05     0.480510302901596E+04     0.000000000000000E+00    -0.131608752006620E+05
     0.693000000000000E+01     0.795717948717949E+01    -0.790228505870898E+04     0.235000119901411E+04     0.802315093407462E+04     0.167227942306364E+05     0.674479784984432E+04     0.000000000000000E+00    -0.122970817095392E+05
     0.643500000000000E+01     0.820467948717949E+01    -0.766565386183443E+04     0.487271839855134E+04     0.793653341543716E+04     0.175733859655326E+05     0.871744631729883E+04     0.000000000000000E+00    -0.115103817805819E+05
     0.594000000000000E+01     0.845217948717949E+01    -0.756975736674918E+04     0.748353362452469E+04     0.774377471559844E+04     0.187043090335417E+05     0.107557972989351E+05     0.000000000000000E+00    -0.108420210411596E+05
     0.544500000000000E+01     0.869967948717949E+01    -0.764105984091589E+04     0.102004154029329E+05     0.744563730671004E+04     0.201665266987172E+05     0.128993625711519E+05     0.000000000000000E+00    -0.103400070091349E+05
     0.495000000000000E+01     0.894717948717949E+01    -0.790678376804131E+04     0.130422303857235E+05     0.704511143145699E+04     0.220145380089313E+05     0.151910704713533E+05     0.000000000000000E+00    -0.100556238536711E+05
     0.445500000000000E+01     0.919467948717949E+01    -0.839478027787593E+04     0.160287526719494E+05     0.654758533465071E+04     0.243015169502928E+05     0.176733246077545E+05     0.000000000000000E+00    -0.100393522136811E+05
     0.396000000000000E+01     0.944217948717949E+01    -0.913339957601367E+04     0.191806731289231E+05     0.596101549482188E+04     0.270758763201785E+05     0.203844760769167E+05     0.000000000000000E+00    -0.103372025240073E+05
     0.346500000000000E+01     0.968967948717949E+01    -0.101513613736916E+05     0.225196087133734E+05     0.529609685581337E+04     0.303798210347720E+05     0.233566806580599E+05     0.000000000000000E+00    -0.109884333183781E+05
     0.297000000000000E+01     0.993717948717949E+01    -0.114776253175894E+05     0.260681117925999E+05     0.456643305837311E+04     0.342496611353274E+05     0.266155150954130E+05     0.000000000000000E+00    -0.120250286204025E+05
     0.130000000000000E+02     0.500000000000000E+01    -0.135268527883008E+05    -0.251152171853617E+05     0.255447540949954E+04     0.222170220521309E+05     0.000000000000000E+00    -0.129887453560969E+05    -0.256533246175656E+05
     0.125000000000000E+02     0.525000000000000E+01    -0.132244804084660E+05    -0.225234048664060E+05     0.323770197181712E+04     0.203906464987536E+05     0.000000000000000E+00    -0.122082376436222E+05    -0.235396476312498E+05
     0.120000000000000E+02     0.550000000000000E+01    -0.128488907215145E+05    -0.199972615197600E+05     0.391985208237245E+04     0.188185428264037E+05     0.000000000000000E+00    -0.111183573142365E+05    -0.217277949270380E+05
     0.115000000000000E+02     0.575000000000000E+01    -0.124074273889549E+05    -0.175287360206742E+05     0.458766919407465E+04     0.175172614126975E+05     0.000000000000000E+00    -0.971416324716864E+04    -0.202220001624604E+05
     0.110000000000000E+02     0.600000000000000E+01    -0.119098974225795E+05    -0.151089494913535E+05     0.522807893914263E+04     0.164978301884037E+05     0.000000000000000E+00    -0.804213044043738E+04    -0.189767164734957E+05
     0.105000000000000E+02     0.625000000000000E+01    -0.113684349367719E+05    -0.127281854994288E+05     0.582836813370453E+04     0.157625535879188E+05     0.000000000000000E+00    -0.618042256578936E+04    -0.179161978704113E+05
     0.100000000000000E+02     0.650000000000000E+01    -0.107973649008135E+05    -0.103758802564288E+05     0.637636378239705E+04     0.153030670082064E+05     0.000000000000000E+00    -0.420677717204366E+04    -0.169664679851986E+05
     0.950000000000000E+01     0.675000000000000E+01    -0.102130668911906E+05    -0.804061281625333E+04     0.686061208296489E+04     0.151010882953859E+05     0.000000000000000E+00    -0.218076993398664E+04    -0.160729097734573E+05
     0.900000000000000E+01     0.700000000000000E+01    -0.963383884390174E+04    -0.571009527364399E+04     0.727055743086009E+04     0.151323797639715E+05     0.000000000000000E+00    -0.141366401672560E+03    -0.152025677158732E+05
     0.850000000000000E+01     0.725000000000000E+01    -0.907976080676454E+04    -0.337116296265737E+04     0.759672142384142E+04     0.153729623645429E+05     0.188978295003602E+04     0.000000000000000E+00    -0.143407067194579E+05
     0.800000000000000E+01     0.750000000000000E+01    -0.857255869172264E+04    -0.100976465513665E+04     0.783088186657381E+04     0.158057031743453E+05     0.390491067092155E+04     0.000000000000000E+00    -0.134872340177808E+05
     0.750000000000000E+01     0.775000000000000E+01    -0.813546802715294E+04     0.138904724081641E+04     0.796625177522767E+04     0.164255698139477E+05     0.590796760958350E+04     0.000000000000000E+00    -0.126543883959200E+05
     0.700000000000000E+01     0.800000000000000E+01    -0.779309771017249E+04     0.384112648236868E+04     0.799765838207830E+04     0.172426366126924E+05     0.791347002010571E+04     0.000000000000000E+00    -0.118654412479095E+05
     0.650000000000000E+01     0.825000000000000E+01    -0.757129375894559E+04     0.636324279348450E+04     0.792172214010531E+04     0.182826249066470E+05     0.994569057495496E+04     0.000000000000000E+00    -0.111537415404160E+05
     0.600000000000000E+01     0.850000000000000E+01    -0.749700306499078E+04     0.897309166645256E+04     0.773703572759195E+04     0.195851446327818E+05     0.120375012330668E+05     0.000000000000000E+00    -0.105614126316050E+05
     0.550000000000000E+01     0.875000000000000E+01    -0.759813714548796E+04     0.116893041634146E+05     0.744434305272451E+04     0.212000751540026E+05     0.142283414704324E+05     0.000000000000000E+00    -0.101371744525057E+05
     0.500000000000000E+01     0.900000000000000E+01    -0.790343589558535E+04     0.145314567178932E+05     0.704671825819175E+04     0.231828532448008E+05     0.165611738756436E+05     0.000000000000000E+00    -0.993315305333580E+04
     0.450000000000000E+01     0.925000000000000E+01    -0.844233134070654E+04     0.175200809363188E+05     0.654974472578421E+04     0.255897243201378E+05     0.190788496527878E+05     0.000000000000000E+00    -0.100011000571755E+05
     0.400000000000000E+01     0.950000000000000E+01    -0.924481138885755E+04     0.206766733995590E+05     0.596169408099364E+04     0.284740003364749E+05     0.218207628672863E+05     0.000000000000000E+00    -0.103889008565849E+05
     0.350000000000000E+01     0.975000000000000E+01    -0.103412835829339E+05     0.240237054644451E+05     0.529370519761240E+04     0.318839531028299E+05     0.248206834796219E+05     0.000000000000000E+00    -0.111382615981107E+05
     0.300000000000000E+01     0.100000000000000E+02    -0.117624388530274E+05     0.275846330653010E+05     0.455996320233278E+04     0.358623660966785E+05     0.281061777334370E+05     0.000000000000000E+00    -0.122839835211634E+05
 zone I=   21 ,j=   21 ,f=point, T="    1"
     0.240000000000000E+01     0.874358974358974E+01    -0.840265934919098E+04    -0.217995000729340E+04     0.416302315840923E+04     0.104418281117651E+05     0.000000000000000E+00    -0.940660166174966E+02    -0.104885433398669E+05
     0.228000000000000E+01     0.874358974358974E+01    -0.841218393320638E+04    -0.250348141116300E+04     0.397501358288748E+04     0.101673354695558E+05     0.000000000000000E+00    -0.505164264382645E+03    -0.104105010799867E+05
     0.216000000000000E+01     0.874358974358974E+01    -0.842085190858586E+04    -0.281078946644455E+04     0.378391510562206E+04     0.990434667343241E+04     0.000000000000000E+00    -0.905596310934405E+03    -0.103260450640960E+05
     0.204000000000000E+01     0.874358974358974E+01    -0.842872140718677E+04    -0.310181606701319E+04     0.358988772058877E+04     0.965308994714448E+04     0.000000000000000E+00    -0.129522690595047E+04    -0.102353105682495E+05
     0.192000000000000E+01     0.874358974358974E+01    -0.843584741860394E+04    -0.337650624761588E+04     0.339309184010936E+04     0.941381119969778E+04     0.000000000000000E+00    -0.167388365960097E+04    -0.101384700066189E+05
     0.180000000000000E+01     0.874358974358974E+01    -0.844228179016961E+04    -0.363480818387118E+04     0.319368827161012E+04     0.918677373975060E+04     0.000000000000000E+00    -0.204134654373114E+04    -0.100357434303096E+05
     0.168000000000000E+01     0.874358974358974E+01    -0.844807322695347E+04    -0.387667319226908E+04     0.299183819438046E+04     0.897225749889236E+04     0.000000000000000E+00    -0.239733398662411E+04    -0.992741243259844E+04
     0.156000000000000E+01     0.874358974358974E+01    -0.845326729176264E+04    -0.410205573017141E+04     0.278770313633140E+04     0.877055767414515E+04     0.000000000000000E+00    -0.274148429683547E+04    -0.981383872509858E+04
     0.144000000000000E+01     0.874358974358974E+01    -0.845790640514169E+04    -0.431091339581151E+04     0.258144495075419E+04     0.858198270466689E+04     0.000000000000000E+00    -0.307333065216003E+04    -0.969548914879317E+04
     0.132000000000000E+01     0.874358974358974E+01    -0.846202984537264E+04    -0.450320692829418E+04     0.237322579307882E+04     0.840685150997112E+04     0.000000000000000E+00    -0.339226721146013E+04    -0.957296956220669E+04
     0.120000000000000E+01     0.874358974358974E+01    -0.846567374847493E+04    -0.467890020759607E+04     0.216320809763264E+04     0.824548993875260E+04     0.000000000000000E+00    -0.369750303204261E+04    -0.944707092402839E+04
     0.108000000000000E+01     0.874358974358974E+01    -0.846887110820543E+04    -0.483796025456526E+04     0.195155455439883E+04     0.809822640989991E+04     0.000000000000000E+00    -0.398799946894022E+04    -0.931883189383047E+04
     0.960000000000000E+00     0.874358974358974E+01    -0.847165177605849E+04    -0.498035723092163E+04     0.173842808577502E+04     0.796538677089064E+04     0.000000000000000E+00    -0.426238590280589E+04    -0.918962310417422E+04
     0.840000000000000E+00     0.874358974358974E+01    -0.847404246126586E+04    -0.510606443925636E+04     0.152399182333183E+04     0.784728845256143E+04     0.000000000000000E+00    -0.451884890932538E+04    -0.906125799119683E+04
     0.720000000000000E+00     0.874358974358974E+01    -0.847606673079675E+04    -0.521505832303246E+04     0.130840908457144E+04     0.774423406053153E+04     0.000000000000000E+00    -0.475499363508960E+04    -0.893613141873960E+04
     0.600000000000000E+00     0.874358974358974E+01    -0.847774500935779E+04    -0.530731846658452E+04     0.109184334968610E+04     0.765650460765498E+04     0.000000000000000E+00    -0.496768810379354E+04    -0.881737537214877E+04
     0.480000000000000E+00     0.874358974358974E+01    -0.847909457939308E+04    -0.538282759511867E+04     0.874458238316745E+03     0.758435265221535E+04     0.000000000000000E+00    -0.515293000765210E+04    -0.870899216685965E+04
     0.360000000000000E+00     0.874358974358974E+01    -0.848012958108414E+04    -0.544157157471273E+04     0.656417486311519E+03     0.752799565524572E+04     0.000000000000000E+00    -0.530583015329441E+04    -0.861587100250246E+04
     0.240000000000000E+00     0.874358974358974E+01    -0.848086101234992E+04    -0.548353941231611E+04     0.437884922484339E+03     0.748760989913620E+04     0.000000000000000E+00    -0.542087788851694E+04    -0.854352253614908E+04
     0.120000000000000E+00     0.874358974358974E+01    -0.848129672884683E+04    -0.550872325574973E+04     0.219024445373450E+03     0.746332531148728E+04     0.000000000000000E+00    -0.549267182433766E+04    -0.849734816025890E+04
     0.000000000000000E+00     0.874358974358974E+01    -0.848144144396871E+04    -0.551711839370622E+04    -0.141386681422022E-10     0.745522150857904E+04     0.000000000000000E+00    -0.551711839370622E+04    -0.848144144396871E+04
     0.243000000000000E+01     0.880641025641026E+01    -0.847982148482819E+04    -0.716027587773831E+03     0.420360989928163E+04     0.109251677494896E+05     0.112391608576486E+04     0.000000000000000E+00    -0.103197651583669E+05
     0.230850000000000E+01     0.880641025641026E+01    -0.849185105382430E+04    -0.104930649128582E+04     0.401454466148380E+04     0.106137519528358E+05     0.703399326633025E+03     0.000000000000000E+00    -0.102445568717431E+05
     0.218700000000000E+01     0.880641025641026E+01    -0.850287361699830E+04    -0.136588242078724E+04     0.382224135403700E+04     0.103140271397723E+05     0.294741390932285E+03     0.000000000000000E+00    -0.101634974287178E+05
     0.206550000000000E+01     0.880641025641026E+01    -0.851295076985252E+04    -0.166569407336070E+04     0.362686765654025E+04     0.100263354674567E+05     0.000000000000000E+00    -0.101797979062919E+03    -0.100768468641503E+05
     0.194400000000000E+01     0.880641025641026E+01    -0.852214077840263E+04    -0.194868345975998E+04     0.342859169374706E+04     0.975105219470852E+04     0.000000000000000E+00    -0.485904114831239E+03    -0.998492012333137E+04
     0.182250000000000E+01     0.880641025641026E+01    -0.853049857917773E+04    -0.221479590440990E+04     0.322758201083460E+04     0.948858632788870E+04     0.000000000000000E+00    -0.857194805361721E+03    -0.988809967822591E+04
     0.170100000000000E+01     0.880641025641026E+01    -0.853807577922029E+04    -0.246398004540673E+04     0.302400754867296E+04     0.923938051456885E+04     0.000000000000000E+00    -0.121520460747299E+04    -0.978685121715403E+04
     0.157950000000000E+01     0.880641025641026E+01    -0.854492065608617E+04    -0.269618783451783E+04     0.281803761909428E+04     0.900390997321953E+04     0.000000000000000E+00    -0.155936538892592E+04    -0.968174310167808E+04
     0.145800000000000E+01     0.880641025641026E+01    -0.855107815784462E+04    -0.291137453718187E+04     0.260984188016197E+04     0.878268023222180E+04     0.000000000000000E+00    -0.188898235842607E+04    -0.957347033660042E+04
     0.133650000000000E+01     0.880641025641026E+01    -0.855658990307828E+04    -0.310949873250868E+04     0.239959031143990E+04     0.857622345015476E+04     0.000000000000000E+00    -0.220320489739476E+04    -0.946288373819221E+04
     0.121500000000000E+01     0.880641025641026E+01    -0.856149418088319E+04    -0.329052231327925E+04     0.218745318926161E+04     0.838509310812415E+04     0.000000000000000E+00    -0.250099181464197E+04    -0.935102467952046E+04
     0.109350000000000E+01     0.880641025641026E+01    -0.856582595086874E+04    -0.345441048594576E+04     0.197360106199950E+04     0.820985691082968E+04     0.000000000000000E+00    -0.278107142938591E+04    -0.923916500742859E+04
     0.972000000000000E+00     0.880641025641026E+01    -0.856961684315777E+04    -0.360113177063182E+04     0.175820472533401E+04     0.805108781224690E+04     0.000000000000000E+00    -0.304189852496961E+04    -0.912885008881998E+04
     0.850500000000000E+00     0.880641025641026E+01    -0.857289515838644E+04    -0.373065800113199E+04     0.154143519752281E+04     0.790935319777049E+04     0.000000000000000E+00    -0.328161323250246E+04    -0.902193992701597E+04
     0.729000000000000E+00     0.880641025641026E+01    -0.857568586770436E+04    -0.384296432491226E+04     0.132346369467004E+04     0.778520240624350E+04     0.000000000000000E+00    -0.349801186255759E+04    -0.892063833005903E+04
     0.607500000000000E+00     0.880641025641026E+01    -0.857801061277449E+04    -0.393802920310971E+04     0.110446160599546E+04     0.767915295440064E+04     0.000000000000000E+00    -0.368854674995294E+04    -0.882749306593126E+04
     0.486000000000000E+00     0.880641025641026E+01    -0.857988770577320E+04    -0.401583441053255E+04     0.884600469103661E+03     0.759167601646445E+04     0.000000000000000E+00    -0.385037998358097E+04    -0.874534213272479E+04
     0.364500000000000E+00     0.880641025641026E+01    -0.858133212939023E+04    -0.407636503566048E+04     0.664051945253249E+03     0.752318188835070E+04     0.000000000000000E+00    -0.398052000353740E+04    -0.867717716151331E+04
     0.243000000000000E+00     0.880641025641026E+01    -0.858235553682873E+04    -0.411960948064426E+04     0.442987794626064E+03     0.747400629892245E+04     0.000000000000000E+00    -0.407606189986128E+04    -0.862590311761171E+04
     0.121500000000000E+00     0.880641025641026E+01    -0.858296625180522E+04    -0.414555946130559E+04     0.221579851596355E+03     0.744439848930122E+04     0.000000000000000E+00    -0.413452242620784E+04    -0.859400328690297E+04
     0.000000000000000E+00     0.880641025641026E+01    -0.858316926854962E+04    -0.415421000713800E+04    -0.171898027135952E-10     0.743451194145332E+04     0.000000000000000E+00    -0.415421000713800E+04    -0.858316926854962E+04
     0.246000000000000E+01     0.886923076923077E+01    -0.856418772764249E+04     0.750065288598329E+03     0.424255229783778E+04     0.115900543273391E+05     0.239278618438592E+04     0.000000000000000E+00    -0.102069086234301E+05
     0.233700000000000E+01     0.886923076923077E+01    -0.857889450891969E+04     0.406842144094320E+03     0.405255015966894E+04     0.112482307831610E+05     0.196451334691547E+04     0.000000000000000E+00    -0.101365657117408E+05
     0.221400000000000E+01     0.886923076923077E+01    -0.859243402738625E+04     0.808108302044275E+02     0.385915519347135E+04     0.109183355441379E+05     0.154930449820058E+04     0.000000000000000E+00    -0.100609276953824E+05
     0.209100000000000E+01     0.886923076923077E+01    -0.860487150444728E+04    -0.227964017868595E+03     0.366254305033413E+04     0.106007945412949E+05     0.114751667008991E+04     0.000000000000000E+00    -0.998035219240579E+04
     0.196800000000000E+01     0.886923076923077E+01    -0.861626863602653E+04    -0.519421258716757E+03     0.346288985466646E+04     0.102960783305330E+05     0.759569107159312E+03     0.000000000000000E+00    -0.989525900190259E+04
     0.184500000000000E+01     0.886923076923077E+01    -0.862668359256637E+04    -0.793503244727006E+03     0.326037217790206E+04     0.100047036937145E+05     0.385954592202705E+03     0.000000000000000E+00    -0.980614142949608E+04
     0.172200000000000E+01     0.886923076923077E+01    -0.863617101902785E+04    -0.105015582208088E+04     0.305516701220360E+04     0.972723435832610E+04     0.272525898634995E+02     0.000000000000000E+00    -0.971357943097223E+04
     0.159900000000000E+01     0.886923076923077E+01    -0.864478203489065E+04    -0.128932833075456E+04     0.284745174416713E+04     0.946428052683103E+04     0.000000000000000E+00    -0.315855742486518E+03    -0.961825462315869E+04
     0.147600000000000E+01     0.886923076923077E+01    -0.865256423415306E+04    -0.151097360451933E+04     0.263740412852656E+04     0.921649686713951E+04     0.000000000000000E+00    -0.642570825368433E+03    -0.952096701330395E+04
     0.135300000000000E+01     0.886923076923077E+01    -0.865956168533207E+04    -0.171504797094085E+04     0.242520226185805E+04     0.898457859110809E+04     0.000000000000000E+00    -0.951956708646954E+03    -0.942265294762597E+04
     0.123000000000000E+01     0.886923076923077E+01    -0.866581493146328E+04    -0.190151125137965E+04     0.221102455628450E+04     0.876925524981587E+04     0.000000000000000E+00    -0.124292297881940E+04    -0.932440320402352E+04
     0.110700000000000E+01     0.886923076923077E+01    -0.867136099010091E+04    -0.207032676099087E+04     0.199504971317996E+04     0.857128191579760E+04     0.000000000000000E+00    -0.151420847904675E+04    -0.922747927204503E+04
     0.984000000000000E+00     0.886923076923077E+01    -0.867623335331790E+04    -0.222146130872468E+04     0.177745669687408E+04     0.839142751713389E+04     0.000000000000000E+00    -0.176437004839652E+04    -0.913332461364606E+04
     0.861000000000000E+00     0.886923076923077E+01    -0.868046198770574E+04    -0.235488519732573E+04     0.155842470835653E+04     0.823046024755843E+04     0.000000000000000E+00    -0.199178108077283E+04    -0.904356610425864E+04
     0.738000000000000E+00     0.886923076923077E+01    -0.868407333437462E+04    -0.247057222333347E+04     0.133813315898148E+04     0.808913020513972E+04     0.000000000000000E+00    -0.219464641753995E+04    -0.895999914016814E+04
     0.615000000000000E+00     0.886923076923077E+01    -0.868709030895336E+04    -0.256849967708215E+04     0.111676164417202E+04     0.796814970262443E+04     0.000000000000000E+00    -0.237104133331315E+04    -0.888454865272236E+04
     0.492000000000000E+00     0.886923076923077E+01    -0.868953230158943E+04    -0.264864834270065E+04     0.894489917124577E+03     0.786817202212312E+04     0.000000000000000E+00    -0.251898207590532E+04    -0.881919856838476E+04
     0.369000000000000E+00     0.886923076923077E+01    -0.869141517694893E+04    -0.271100249811274E+04     0.671497862513391E+03     0.778976971444653E+04     0.000000000000000E+00    -0.263653212837271E+04    -0.876588554668895E+04
     0.246000000000000E+00     0.886923076923077E+01    -0.869275127421662E+04    -0.275554991503677E+04     0.447965470194939E+03     0.773341381292966E+04     0.000000000000000E+00    -0.272194089886113E+04    -0.872636029039225E+04
     0.123000000000000E+00     0.886923076923077E+01    -0.869354940709587E+04    -0.278228185898592E+04     0.224072808912377E+03     0.769945548087526E+04     0.000000000000000E+00    -0.277380031307976E+04    -0.870203095300203E+04
     0.000000000000000E+00     0.886923076923077E+01    -0.869381486380873E+04    -0.279119308926814E+04    -0.199498106321214E-10     0.768811158741341E+04     0.000000000000000E+00    -0.279119308926814E+04    -0.869381486380873E+04
     0.249000000000000E+01     0.893205128205128E+01    -0.865609050176134E+04     0.221838821459920E+04     0.427976840039523E+04     0.124097127638810E+05     0.370068564721397E+04     0.000000000000000E+00    -0.101383879343761E+05
     0.236550000000000E+01     0.893205128205128E+01    -0.867365340890602E+04     0.186502132694671E+04     0.408895323330271E+04     0.120434933565954E+05     0.326542569623640E+04     0.000000000000000E+00    -0.100740577781957E+05
     0.224100000000000E+01     0.893205128205128E+01    -0.868987855809899E+04     0.152934447327469E+04     0.389458473484903E+04     0.116895710951882E+05     0.284436680693355E+04     0.000000000000000E+00    -0.100049008917579E+05
     0.211650000000000E+01     0.893205128205128E+01    -0.870483496450555E+04     0.121142576066832E+04     0.369684682129694E+04     0.113484357825939E+05     0.243793225989791E+04     0.000000000000000E+00    -0.993134146373513E+04
     0.199200000000000E+01     0.893205128205128E+01    -0.871858791274152E+04     0.911329614748887E+03     0.349592391180279E+04     0.110206286669109E+05     0.204660713989854E+04     0.000000000000000E+00    -0.985386543789117E+04
     0.186750000000000E+01     0.893205128205128E+01    -0.873119895687323E+04     0.629116779673524E+03     0.329200090047805E+04     0.107067444493484E+05     0.167094699254026E+04     0.000000000000000E+00    -0.977302916973996E+04
     0.174300000000000E+01     0.893205128205128E+01    -0.874272592041756E+04     0.364844318135409E+03     0.308526312845070E+04     0.104074323196660E+05     0.131158712664198E+04     0.000000000000000E+00    -0.968946872892413E+04
     0.161850000000000E+01     0.893205128205128E+01    -0.875322289634189E+04     0.118565611363447E+03     0.287589635592677E+04     0.101233956581498E+05     0.969252264051034E+03     0.000000000000000E+00    -0.960390954902948E+04
     0.149400000000000E+01     0.893205128205128E+01    -0.876274024706414E+04    -0.109669640877284E+03     0.266408673425174E+04     0.985538999098968E+04     0.644766012109418E+03     0.000000000000000E+00    -0.951717590005084E+04
     0.136950000000000E+01     0.893205128205128E+01    -0.877132460445274E+04    -0.319815420286002E+03     0.245002077797205E+04     0.960421874971500E+04     0.339059316966525E+03     0.000000000000000E+00    -0.943019934170527E+04
     0.124500000000000E+01     0.893205128205128E+01    -0.877901886982668E+04    -0.511829390025960E+03     0.223388533689657E+04     0.937072637863800E+04     0.531766375504640E+02     0.000000000000000E+00    -0.934402489740311E+04
     0.112050000000000E+01     0.893205128205128E+01    -0.878586221395543E+04    -0.685672894724295E+03     0.201586756815802E+04     0.915578837355537E+04     0.000000000000000E+00    -0.211721930763785E+03    -0.925981317791594E+04
     0.996000000000000E+00     0.893205128205128E+01    -0.879189007705901E+04    -0.841310960472358E+03     0.179615490827448E+04     0.896029793800168E+04     0.000000000000000E+00    -0.454364907660473E+03    -0.917883612987089E+04
     0.871500000000000E+00     0.893205128205128E+01    -0.879713416880796E+04    -0.978712294825615E+03     0.157493504521084E+04     0.878514912563857E+04     0.000000000000000E+00    -0.673382859899031E+03    -0.910246360373454E+04
     0.747000000000000E+00     0.893205128205128E+01    -0.880162246832334E+04    -0.109784928680354E+04     0.135239589044025E+04     0.863121660690459E+04     0.000000000000000E+00    -0.867334016825620E+03    -0.903213773830126E+04
     0.622500000000000E+00     0.893205128205128E+01    -0.880537922417674E+04    -0.119869800688958E+04     0.112872555100563E+04     0.849933254884381E+04     0.000000000000000E+00    -0.103474468202505E+04    -0.896933254904128E+04
     0.498000000000000E+00     0.893205128205128E+01    -0.880842495439028E+04    -0.128123820703142E+04     0.904112301581068E+03     0.839026150287101E+04     0.000000000000000E+00    -0.117416572891301E+04    -0.891549743250870E+04
     0.373500000000000E+00     0.893205128205128E+01    -0.881077644643660E+04    -0.134545332064072E+04     0.678744556533359E+03     0.830467460644274E+04     0.000000000000000E+00    -0.128424396900304E+04    -0.887198579807428E+04
     0.249000000000000E+00     0.893205128205128E+01    -0.881244675723885E+04    -0.139133046259329E+04     0.452810841983415E+03     0.824312475083538E+04     0.000000000000000E+00    -0.136380361579392E+04    -0.883997360403822E+04
     0.124500000000000E+00     0.893205128205128E+01    -0.881344521317073E+04    -0.141886042922887E+04     0.226499767867758E+03     0.820602456854606E+04     0.000000000000000E+00    -0.141192912701362E+04    -0.882037651538597E+04
     0.000000000000000E+00     0.893205128205128E+01    -0.881377741005644E+04    -0.142803769835143E+04    -0.224083710150810E-10     0.819362907968717E+04     0.000000000000000E+00    -0.142803769835143E+04    -0.881377741005644E+04
     0.252000000000000E+01     0.899487179487179E+01    -0.875587572725813E+04     0.368900195212991E+04     0.431517445504387E+04     0.133580211684537E+05     0.503884649931437E+04     0.000000000000000E+00    -0.101057202744426E+05
     0.239400000000000E+01     0.899487179487179E+01    -0.877648050410451E+04     0.332528901740172E+04     0.412367534890664E+04     0.129723778263454E+05     0.459682904431933E+04     0.000000000000000E+00    -0.100480205310221E+05
     0.226800000000000E+01     0.899487179487179E+01    -0.879556640317197E+04     0.297977378397330E+04     0.392845650575484E+04     0.125995297488618E+05     0.417005746591779E+04     0.000000000000000E+00    -0.998585008511646E+04
     0.214200000000000E+01     0.899487179487179E+01    -0.881320640696935E+04     0.265252797459243E+04     0.372971040866939E+04     0.122400166489182E+05     0.375899598247440E+04     0.000000000000000E+00    -0.991967441485132E+04
     0.201600000000000E+01     0.899487179487179E+01    -0.882946955300503E+04     0.234361943510213E+04     0.352763007465846E+04     0.118944324337482E+05     0.336416608070110E+04     0.000000000000000E+00    -0.985001619860400E+04
     0.189000000000000E+01     0.899487179487179E+01    -0.884442093378689E+04     0.205311213443973E+04     0.332240902499488E+04     0.115634270101879E+05     0.298615243480837E+04     0.000000000000000E+00    -0.977746123415553E+04
     0.176400000000000E+01     0.899487179487179E+01    -0.885812169682234E+04     0.178106616463754E+04     0.311424125555344E+04     0.112477070244720E+05     0.262560868483484E+04     0.000000000000000E+00    -0.970266421701964E+04
     0.163800000000000E+01     0.899487179487179E+01    -0.887062904461833E+04     0.152753774082215E+04     0.290332120714836E+04     0.109480351635799E+05     0.228326267048617E+04     0.000000000000000E+00    -0.962635397428235E+04
     0.151200000000000E+01     0.899487179487179E+01    -0.888199623468130E+04     0.129257920121527E+04     0.268984373587058E+04     0.106652275959182E+05     0.195992054590774E+04     0.000000000000000E+00    -0.954933757937378E+04
     0.138600000000000E+01     0.899487179487179E+01    -0.889227257951724E+04     0.107623900713323E+04     0.247400408342520E+04     0.104001490977515E+05     0.165646899580985E+04     0.000000000000000E+00    -0.947250256819385E+04
     0.126000000000000E+01     0.899487179487179E+01    -0.890150344663164E+04     0.878561742986785E+03     0.225599784746880E+04     0.101537054119795E+05     0.137387454713578E+04     0.000000000000000E+00    -0.939681625078064E+04
     0.113400000000000E+01     0.899487179487179E+01    -0.890973025852953E+04     0.699588116281666E+03     0.203602095194687E+04     0.992683243389559E+04     0.111317875270471E+04     0.000000000000000E+00    -0.932332089495257E+04
     0.100800000000000E+01     0.899487179487179E+01    -0.891699049271545E+04     0.539354957618401E+03     0.181426961743112E+04     0.972048193151803E+04     0.875487867358012E+03     0.000000000000000E+00    -0.925312340245506E+04
     0.882000000000000E+00     0.899487179487179E+01    -0.892331768169345E+04     0.397895220691717E+03     0.159094033145692E+04     0.953560370024367E+04     0.661955624338573E+03     0.000000000000000E+00    -0.918737808534031E+04
     0.756000000000000E+00     0.899487179487179E+01    -0.892874141296714E+04     0.275237982291583E+03     0.136622981886063E+04     0.937312432923359E+04     0.473757955002520E+03     0.000000000000000E+00    -0.912726138567808E+04
     0.630000000000000E+00     0.899487179487179E+01    -0.893328732903961E+04     0.171408442302374E+03     0.114033501211698E+04     0.923392311222927E+04     0.312059087638288E+03     0.000000000000000E+00    -0.907393797437553E+04
     0.504000000000000E+00     0.899487179487179E+01    -0.893697712741351E+04     0.864279237033043E+02     0.913453021676468E+03     0.911880604068558E+04     0.177969482694399E+03     0.000000000000000E+00    -0.902851868640460E+04
     0.378000000000000E+00     0.899487179487179E+01    -0.893982856059098E+04     0.203138725681929E+02     0.685781106302716E+03     0.902847922197440E+04     0.724974845906645E+02     0.000000000000000E+00    -0.899201217261345E+04
     0.252000000000000E+00     0.899487179487179E+01    -0.894185543607369E+04    -0.269201419344172E+02     0.457516643409842E+03     0.896352340060409E+04     0.000000000000000E+00    -0.350179361547089E+01    -0.896527378439263E+04
     0.126000000000000E+00     0.899487179487179E+01    -0.894306761636283E+04    -0.552644275413186E+02     0.228857099399846E+03     0.892437144853040E+04     0.000000000000000E+00    -0.493753580272905E+02    -0.894895668587686E+04
     0.000000000000000E+00     0.899487179487179E+01    -0.894347101895914E+04    -0.647131688944937E+02    -0.245551447307999E-10     0.891129066469260E+04     0.000000000000000E+00    -0.647131688944937E+02    -0.894347101895914E+04
     0.255000000000000E+01     0.905769230769231E+01    -0.886390303977700E+04     0.516196844174416E+04     0.434868489680309E+04     0.144119070233328E+05     0.640084026270728E+04     0.000000000000000E+00    -0.101027748607401E+05
     0.242250000000000E+01     0.905769230769231E+01    -0.888774240565017E+04     0.478770431289001E+04     0.415663626975503E+04     0.140106686329159E+05     0.595198606589964E+04     0.000000000000000E+00    -0.100520241586598E+05
     0.229500000000000E+01     0.905769230769231E+01    -0.890987075443942E+04     0.443215513542382E+04     0.396069543743019E+04     0.136228136032822E+05     0.551933283390420E+04     0.000000000000000E+00    -0.999704845291980E+04
     0.216750000000000E+01     0.905769230769231E+01    -0.893036521543432E+04     0.409539639579711E+04     0.376106375947905E+04     0.132489200256017E+05     0.510336773545219E+04     0.000000000000000E+00    -0.993833655508940E+04
     0.204000000000000E+01     0.905769230769231E+01    -0.894929874877366E+04     0.377749950011296E+04     0.355794316202650E+04     0.128896198838695E+05     0.470462902324913E+04     0.000000000000000E+00    -0.987642827190983E+04
     0.191250000000000E+01     0.905769230769231E+01    -0.896674014544545E+04     0.347853177412570E+04     0.335153610620102E+04     0.125456002430857E+05     0.432370966016159E+04     0.000000000000000E+00    -0.981191803148134E+04
     0.178500000000000E+01     0.905769230769231E+01    -0.898275402728692E+04     0.319855646324082E+04     0.314204555666389E+04     0.122176032901471E+05     0.396126036490713E+04     0.000000000000000E+00    -0.974545792895323E+04
     0.165750000000000E+01     0.905769230769231E+01    -0.899740084698448E+04     0.293763273251502E+04     0.292967495013841E+04     0.119064248726696E+05     0.361799168990538E+04     0.000000000000000E+00    -0.967775980437484E+04
     0.153000000000000E+01     0.905769230769231E+01    -0.901073688807380E+04     0.269581566665650E+04     0.271462816393907E+04     0.116129111445420E+05     0.329467463644922E+04     0.000000000000000E+00    -0.960959585786651E+04
     0.140250000000000E+01     0.905769230769231E+01    -0.902281426493970E+04     0.247315627002440E+04     0.249710948450078E+04     0.113379529105087E+05     0.299213920198093E+04     0.000000000000000E+00    -0.954179719689623E+04
     0.127500000000000E+01     0.905769230769231E+01    -0.903368092281627E+04     0.226970146662937E+04     0.227732357590802E+04     0.110824772776943E+05     0.271127015721375E+04     0.000000000000000E+00    -0.947524961340065E+04
     0.114750000000000E+01     0.905769230769231E+01    -0.904338063778677E+04     0.208549410013319E+04     0.205547544842412E+04     0.108474362834807E+05     0.245299929260725E+04     0.000000000000000E+00    -0.941088583026082E+04
     0.102000000000000E+01     0.905769230769231E+01    -0.905195301678370E+04     0.192057293384892E+04     0.183177042702037E+04     0.106337922899932E+05     0.221829338966664E+04     0.000000000000000E+00    -0.934967347260141E+04
     0.892500000000000E+00     0.905769230769231E+01    -0.905943349758875E+04     0.177497265074082E+04     0.160641411990528E+04     0.104425001255173E+05     0.200813730543860E+04     0.000000000000000E+00    -0.929259815228653E+04
     0.765000000000000E+00     0.905769230769231E+01    -0.906585334883284E+04     0.164872385342454E+04     0.137961238705378E+04     0.102744862144441E+05     0.182351185103304E+04     0.000000000000000E+00    -0.924064134644134E+04
     0.637500000000000E+00     0.905769230769231E+01    -0.907123966999610E+04     0.154185306416696E+04     0.115157130873637E+04     0.101306252590984E+05     0.166536662540031E+04     0.000000000000000E+00    -0.919475323122944E+04
     0.510000000000000E+00     0.905769230769231E+01    -0.907561539140785E+04     0.145438272488603E+04     0.922497154048362E+03     0.100117153916730E+05     0.153458862833930E+04     0.000000000000000E+00    -0.915582129486112E+04
     0.382500000000000E+00     0.905769230769231E+01    -0.907899927424664E+04     0.138633119715119E+04     0.692596349439082E+03     0.991845305743471E+04     0.143196826163823E+04     0.000000000000000E+00    -0.912463633873368E+04
     0.255000000000000E+00     0.905769230769231E+01    -0.908140591054024E+04     0.133771276218302E+04     0.462075447241044E+03     0.985140916255261E+04     0.135816510821901E+04     0.000000000000000E+00    -0.910185825657624E+04
     0.127500000000000E+00     0.905769230769231E+01    -0.908284572316561E+04     0.130853762085331E+04     0.231141094199168E+03     0.981100815846505E+04     0.131367647444417E+04     0.000000000000000E+00    -0.908798457675647E+04
     0.000000000000000E+00     0.905769230769231E+01    -0.908332496584894E+04     0.129881189368534E+04    -0.263797764413290E-10     0.979751168768105E+04     0.129881189368534E+04     0.000000000000000E+00    -0.908332496584894E+04
     0.258000000000000E+01     0.912051282051282E+01    -0.898054601015778E+04     0.663735081217406E+04     0.438021233277910E+04     0.155521846388026E+05     0.778194557499691E+04     0.000000000000000E+00    -0.101251407729806E+05
     0.245100000000000E+01     0.912051282051282E+01    -0.900781980639786E+04     0.625232745728205E+04     0.418775404196598E+04     0.151381672322449E+05     0.732600632326174E+04     0.000000000000000E+00    -0.100814986723775E+05
     0.232200000000000E+01     0.912051282051282E+01    -0.903317902364699E+04     0.588654600709150E+04     0.399122485176879E+04     0.147381680860270E+05     0.688714592385846E+04     0.000000000000000E+00    -0.100337789404139E+05
     0.219300000000000E+01     0.912051282051282E+01    -0.905670512339574E+04     0.554008586413850E+04     0.379083531641305E+04     0.143527934665158E+05     0.646586261927307E+04     0.000000000000000E+00    -0.998248187853031E+04
     0.206400000000000E+01     0.912051282051282E+01    -0.907847516381083E+04     0.521302213893028E+04     0.358679659071401E+04     0.139827011870759E+05     0.606269927808031E+04     0.000000000000000E+00    -0.992815230296087E+04
     0.193500000000000E+01     0.912051282051282E+01    -0.909856179973520E+04     0.490542564994493E+04     0.337932039671057E+04     0.136286009953935E+05     0.567824526474998E+04     0.000000000000000E+00    -0.987138141454026E+04
     0.180600000000000E+01     0.912051282051282E+01    -0.911703328268796E+04     0.461736292363174E+04     0.316861899029920E+04     0.132912537638939E+05     0.531313752263914E+04     0.000000000000000E+00    -0.981280788169536E+04
     0.167700000000000E+01     0.912051282051282E+01    -0.913395346086440E+04     0.434889619441092E+04     0.295490512786785E+04     0.129714691660188E+05     0.496806054301378E+04     0.000000000000000E+00    -0.975311780946727E+04
     0.154800000000000E+01     0.912051282051282E+01    -0.914938177913602E+04     0.410008340467376E+04     0.273839203292979E+04     0.126701015007524E+05     0.464374483376550E+04     0.000000000000000E+00    -0.969304320822776E+04
     0.141900000000000E+01     0.912051282051282E+01    -0.916337327905048E+04     0.387097820478232E+04     0.251929336275760E+04     0.123880433282060E+05     0.434096345275718E+04     0.000000000000000E+00    -0.963335852702533E+04
     0.129000000000000E+01     0.912051282051282E+01    -0.917597859883163E+04     0.366162995307017E+04     0.229782317501702E+04     0.121262166101627E+05     0.406052614550381E+04     0.000000000000000E+00    -0.957487479126528E+04
     0.116100000000000E+01     0.912051282051282E+01    -0.918724397337953E+04     0.347208371584132E+04     0.207419589440084E+04     0.118855611215748E+05     0.380327064227492E+04     0.000000000000000E+00    -0.951843089981313E+04
     0.103200000000000E+01     0.912051282051282E+01    -0.919721123427040E+04     0.330238026737131E+04     0.184862627926286E+04     0.116670200211604E+05     0.357005074564283E+04     0.000000000000000E+00    -0.946488171254193E+04
     0.903000000000000E+00     0.912051282051282E+01    -0.920591780975667E+04     0.315255608990634E+04     0.162132938825172E+04     0.114715226465344E+05     0.336172099557607E+04     0.000000000000000E+00    -0.941508271542640E+04
     0.774000000000000E+00     0.912051282051282E+01    -0.921339672476692E+04     0.302264337366386E+04     0.139252054694486E+04     0.112999648296950E+05     0.317911794921827E+04     0.000000000000000E+00    -0.936987130032132E+04
     0.645000000000000E+00     0.912051282051282E+01    -0.921967660090595E+04     0.291267001683221E+04     0.116241531448241E+04     0.111531872997195E+05     0.302303845691771E+04     0.000000000000000E+00    -0.933004504099145E+04
     0.516000000000000E+00     0.912051282051282E+01    -0.922478165645474E+04     0.282265962557073E+04     0.931229450201078E+03     0.110319530262885E+05     0.289421573380283E+04     0.000000000000000E+00    -0.929633776468684E+04
     0.387000000000000E+00     0.912051282051282E+01    -0.922873170637044E+04     0.275263151400996E+04     0.699178880268047E+03     0.109369246230019E+05     0.279329446878071E+04     0.000000000000000E+00    -0.926939466114119E+04
     0.258000000000000E+00     0.912051282051282E+01    -0.923154216228641E+04     0.270260070425121E+04     0.466479664314903E+03     0.108686431278918E+05     0.272080660515431E+04     0.000000000000000E+00    -0.924974806318952E+04
     0.129000000000000E+00     0.912051282051282E+01    -0.923322403251218E+04     0.267257792636697E+04     0.233347962071521E+03     0.108275095640579E+05     0.267714967807905E+04     0.000000000000000E+00    -0.923779578422426E+04
     0.000000000000000E+00     0.912051282051282E+01    -0.923378392203347E+04     0.266256961840074E+04    -0.278718966451474E-10     0.108137706201546E+05     0.266256961840074E+04     0.000000000000000E+00    -0.923378392203347E+04
     0.261000000000000E+01     0.918333333333333E+01    -0.910619236406085E+04     0.811521338985764E+04     0.440966752732208E+04     0.167634610102511E+05     0.917867051451058E+04     0.000000000000000E+00    -0.101696494887138E+05
     0.247950000000000E+01     0.918333333333333E+01    -0.913710770182827E+04     0.771921985002764E+04     0.421694498059241E+04     0.163386752920699E+05     0.871531040020993E+04     0.000000000000000E+00    -0.101331982520106E+05
     0.234900000000000E+01     0.918333333333333E+01    -0.916589306456438E+04     0.734300499355138E+04     0.401996644831238E+04     0.159285563465895E+05     0.826984449164871E+04     0.000000000000000E+00    -0.100927325626617E+05
     0.221850000000000E+01     0.918333333333333E+01    -0.919263443749462E+04     0.698665229584932E+04     0.381895200569074E+04     0.155337298150651E+05     0.784277464384421E+04     0.000000000000000E+00    -0.100487567854895E+05
     0.208800000000000E+01     0.918333333333333E+01    -0.921741315799442E+04     0.665024072015696E+04     0.361412236426557E+04     0.151548693386205E+05     0.743464125936421E+04     0.000000000000000E+00    -0.100018136972017E+05
     0.195750000000000E+01     0.918333333333333E+01    -0.924030591558919E+04     0.633384471752509E+04     0.340569883655261E+04     0.147926961310997E+05     0.704602387127470E+04     0.000000000000000E+00    -0.995248506933880E+04
     0.182700000000000E+01     0.918333333333333E+01    -0.926138475195431E+04     0.603753422681961E+04     0.319390330069367E+04     0.144479773454268E+05     0.667754087066187E+04     0.000000000000000E+00    -0.990139139579656E+04
     0.169650000000000E+01     0.918333333333333E+01    -0.928071706091511E+04     0.576137467472153E+04     0.297895816510496E+04     0.141215229629680E+05     0.632984811865917E+04     0.000000000000000E+00    -0.984919050485275E+04
     0.156600000000000E+01     0.918333333333333E+01    -0.929836558844695E+04     0.550542697572673E+04     0.276108633312552E+04     0.138141809297257E+05     0.600363615557795E+04     0.000000000000000E+00    -0.979657476829816E+04
     0.143550000000000E+01     0.918333333333333E+01    -0.931438843267511E+04     0.526974753214646E+04     0.254051116766551E+04     0.135268302777465E+05     0.569962570683452E+04     0.000000000000000E+00    -0.974426660736318E+04
     0.130500000000000E+01     0.918333333333333E+01    -0.932883904387488E+04     0.505438823410703E+04     0.231745645585467E+04     0.132603720122473E+05     0.541856119594747E+04     0.000000000000000E+00    -0.969301200571533E+04
     0.117450000000000E+01     0.918333333333333E+01    -0.934176622447153E+04     0.485939645954975E+04     0.209214637369064E+04     0.130157176216965E+05     0.516120201930644E+04     0.000000000000000E+00    -0.964357178422822E+04
     0.104400000000000E+01     0.918333333333333E+01    -0.935321412904027E+04     0.468481507423104E+04     0.186480545068731E+04     0.127937751846122E+05     0.492831142590125E+04     0.000000000000000E+00    -0.959671048071048E+04
     0.913500000000000E+00     0.918333333333333E+01    -0.936322226430633E+04     0.453068243172261E+04     0.163565853452327E+04     0.125954332045311E+05     0.472064298545653E+04     0.000000000000000E+00    -0.955318281804024E+04
     0.783000000000000E+00     0.918333333333333E+01    -0.937182548914487E+04     0.439703237341103E+04     0.140493075569012E+04     0.124215424988361E+05     0.453892482235053E+04     0.000000000000000E+00    -0.951371793808437E+04
     0.652500000000000E+00     0.918333333333333E+01    -0.937905401458106E+04     0.428389422849828E+04     0.117284749214084E+04     0.122728966854077E+05     0.438384203273165E+04     0.000000000000000E+00    -0.947900181881443E+04
     0.522000000000000E+00     0.918333333333333E+01    -0.938493340379003E+04     0.419129281400109E+04     0.939634333938191E+03     0.121502120321417E+05     0.425601796823966E+04     0.000000000000000E+00    -0.944965855802860E+04
     0.391500000000000E+00     0.918333333333333E+01    -0.938948457209690E+04     0.411924843475159E+04     0.705517047903087E+03     0.120541076292785E+05     0.415599532807322E+04     0.000000000000000E+00    -0.942623146541853E+04
     0.261000000000000E+00     0.918333333333333E+01    -0.939272378697674E+04     0.406777688339684E+04     0.470721542262938E+03     0.119850869798839E+05     0.408421820743328E+04     0.000000000000000E+00    -0.940916511101318E+04
     0.130500000000000E+00     0.918333333333333E+01    -0.939466266805462E+04     0.403688944039910E+04     0.235473831300047E+03     0.119435221478845E+05     0.404101635688201E+04     0.000000000000000E+00    -0.939878958453753E+04
     0.000000000000000E+00     0.918333333333333E+01    -0.939530818710558E+04     0.402659287403570E+04    -0.290211237198628E-10     0.119296415327325E+05     0.402659287403570E+04     0.000000000000000E+00    -0.939530818710558E+04
     0.264000000000000E+01     0.924615384615385E+01    -0.924124420159204E+04     0.959562170846539E+04     0.443695938718346E+04     0.180336313495093E+05     0.105884080831735E+05     0.000000000000000E+00    -0.102340305763002E+05
     0.250800000000000E+01     0.924615384615385E+01    -0.927601561095408E+04     0.918844405529601E+04     0.424412365571311E+04     0.175994851369074E+05     0.101172502567802E+05     0.000000000000000E+00    -0.102048218124383E+05
     0.237600000000000E+01     0.924615384615385E+01    -0.930842939509800E+04     0.880159181325641E+04     0.404684029124636E+04     0.171806467060306E+05     0.966475308622555E+04     0.000000000000000E+00    -0.101715906680671E+05
     0.224400000000000E+01     0.924615384615385E+01    -0.933857626076380E+04     0.843515269195102E+04     0.384533922493638E+04     0.167777538861465E+05     0.923141756389716E+04     0.000000000000000E+00    -0.101348411327099E+05
     0.211200000000000E+01     0.924615384615385E+01    -0.936654201162448E+04     0.808920965992444E+04     0.363985106168669E+04     0.163914883873322E+05     0.881777778348044E+04     0.000000000000000E+00    -0.100951101351805E+05
     0.198000000000000E+01     0.924615384615385E+01    -0.939240754828598E+04     0.776384094466176E+04     0.343060704272067E+04     0.160225746403046E+05     0.842440060172672E+04     0.000000000000000E+00    -0.100529672053509E+05
     0.184800000000000E+01     0.924615384615385E+01    -0.941624886828723E+04     0.745912003258796E+04     0.321783900815086E+04     0.156717774557477E+05     0.805188445070246E+04     0.000000000000000E+00    -0.100090132864017E+05
     0.171600000000000E+01     0.924615384615385E+01    -0.943813706610015E+04     0.717511566906894E+04     0.300177935954851E+04     0.153398982807267E+05     0.770085710032873E+04     0.000000000000000E+00    -0.996387849735993E+04
     0.158400000000000E+01     0.924615384615385E+01    -0.945813833312958E+04     0.691189185841038E+04     0.278266102251291E+04     0.150277698355441E+05     0.737197216316636E+04     0.000000000000000E+00    -0.991821863788556E+04
     0.145200000000000E+01     0.924615384615385E+01    -0.947631395771340E+04     0.666950786385851E+04     0.256071740924087E+04     0.147362489386734E+05     0.706590413981907E+04     0.000000000000000E+00    -0.987271023367396E+04
     0.132000000000000E+01     0.924615384615385E+01    -0.949272032512241E+04     0.644801820759990E+04     0.233618238109609E+04     0.144662073753215E+05     0.678334182984824E+04     0.000000000000000E+00    -0.982804394737074E+04
     0.118800000000000E+01     0.924615384615385E+01    -0.950740891756039E+04     0.624747267076132E+04     0.210929021117865E+04     0.142185207410880E+05     0.652497998560052E+04     0.000000000000000E+00    -0.978491623239960E+04
     0.105600000000000E+01     0.924615384615385E+01    -0.952042631416412E+04     0.606791629340980E+04     0.188027554689436E+04     0.139940552984447E+05     0.629150916955636E+04     0.000000000000000E+00    -0.974401919031068E+04
     0.924000000000000E+00     0.924615384615385E+01    -0.953181419100334E+04     0.590938937455279E+04     0.164937337252426E+04     0.137936530193561E+05     0.608360389174193E+04     0.000000000000000E+00    -0.970602870819248E+04
     0.792000000000000E+00     0.924615384615385E+01    -0.954160932108073E+04     0.577192747213802E+04     0.141681897179398E+04     0.136181151465618E+05     0.590190924990508E+04     0.000000000000000E+00    -0.967159109884779E+04
     0.660000000000000E+00     0.924615384615385E+01    -0.954984357433200E+04     0.565556140305352E+04     0.118284789044318E+04     0.134681847773888E+05     0.574702646280296E+04     0.000000000000000E+00    -0.964130863408143E+04
     0.528000000000000E+00     0.924615384615385E+01    -0.955654391762578E+04     0.556031724312750E+04     0.947695898795009E+03     0.133445291401904E+05     0.561949786016476E+04     0.000000000000000E+00    -0.961572453466304E+04
     0.396000000000000E+00     0.924615384615385E+01    -0.956173241476370E+04     0.548621632712873E+04     0.711598954325471E+03     0.132477223727138E+05     0.551979204906662E+04     0.000000000000000E+00    -0.959530813670159E+04
     0.264000000000000E+00     0.924615384615385E+01    -0.956542622648036E+04     0.543327524876615E+04     0.474793164232890E+03     0.131782297001431E+05     0.544829008880098E+04     0.000000000000000E+00    -0.958044106651519E+04
     0.132000000000000E+00     0.924615384615385E+01    -0.956763761044333E+04     0.540150586068883E+04     0.237514748007321E+03     0.131363939268029E+05     0.540527354854339E+04     0.000000000000000E+00    -0.957140529829789E+04
     0.000000000000000E+00     0.924615384615385E+01    -0.956837392125315E+04     0.539091527448644E+04    -0.298170659649137E-10     0.131224250852382E+05     0.539091527448644E+04     0.000000000000000E+00    -0.956837392125315E+04
     0.267000000000000E+01     0.930897435897436E+01    -0.938611821692752E+04     0.110786425184272E+05     0.446199494667312E+04     0.193532731161085E+05     0.120091921824648E+05     0.000000000000000E+00    -0.103166678809652E+05
     0.253650000000000E+01     0.930897435897436E+01    -0.942496779722591E+04     0.106600638111149E+05     0.426920287852374E+04     0.189107381195422E+05     0.115298445981763E+05     0.000000000000000E+00    -0.102947485842872E+05
     0.240300000000000E+01     0.930897435897436E+01    -0.946121941940359E+04     0.102623673173058E+05     0.407176479639559E+04     0.184841329382920E+05     0.110698868132967E+05     0.000000000000000E+00    -0.102687389153945E+05
     0.226950000000000E+01     0.930897435897436E+01    -0.949496871587397E+04     0.988564514666772E+04     0.386992083105184E+04     0.180741020247460E+05     0.106298164323872E+05     0.000000000000000E+00    -0.102391400015934E+05
     0.213600000000000E+01     0.930897435897436E+01    -0.952630614973079E+04     0.952998442996785E+04     0.366391182616728E+04     0.176813294462169E+05     0.102101594002988E+05     0.000000000000000E+00    -0.102064811200617E+05
     0.200250000000000E+01     0.930897435897436E+01    -0.955531701474820E+04     0.919546731907217E+04     0.345397929872210E+04     0.173065371114199E+05     0.981146901284837E+04     0.000000000000000E+00    -0.101713187085244E+05
     0.186900000000000E+01     0.930897435897436E+01    -0.958208143538064E+04     0.888217098694592E+04     0.324036539939575E+04     0.169504818680858E+05     0.943432412075482E+04     0.000000000000000E+00    -0.101342345691895E+05
     0.173550000000000E+01     0.930897435897436E+01    -0.960667436676297E+04     0.859016762765308E+04     0.302331287296068E+04     0.166139512939698E+05     0.907932637562817E+04     0.000000000000000E+00    -0.100958331147381E+05
     0.160200000000000E+01     0.930897435897436E+01    -0.962916559471036E+04     0.831952445635700E+04     0.280306501867615E+04     0.162977580171801E+05     0.874709637026961E+04     0.000000000000000E+00    -0.100567375086230E+05
     0.146850000000000E+01     0.930897435897436E+01    -0.964961973571835E+04     0.807030370931965E+04     0.257986565068206E+04     0.160027324316200E+05     0.843826854156207E+04     0.000000000000000E+00    -0.100175845679608E+05
     0.133500000000000E+01     0.930897435897436E+01    -0.966809623696286E+04     0.784256264390246E+04     0.235395905839272E+04     0.157297137228284E+05     0.815348473644064E+04     0.000000000000000E+00    -0.997901832950104E+04
     0.120150000000000E+01     0.930897435897436E+01    -0.968464937630013E+04     0.763635353856542E+04     0.212558996689063E+04     0.154795391909561E+05     0.789338639289963E+04     0.000000000000000E+00    -0.994168223063433E+04
     0.106800000000000E+01     0.930897435897436E+01    -0.969932826226678E+04     0.745172369286808E+04     0.189500349732035E+04     0.152530319515651E+05     0.765860536051903E+04     0.000000000000000E+00    -0.990620992991773E+04
     0.934500000000000E+00     0.930897435897436E+01    -0.971217683407978E+04     0.728871542746850E+04     0.166244512728220E+04     0.150509872090699E+05     0.744975347802364E+04     0.000000000000000E+00    -0.987321488463492E+04
     0.801000000000000E+00     0.930897435897436E+01    -0.972323386163645E+04     0.714736608412417E+04     0.142816065122617E+04     0.148741574260985E+05     0.726741113515641E+04     0.000000000000000E+00    -0.984327891266869E+04
     0.667500000000000E+00     0.930897435897436E+01    -0.973253294551448E+04     0.702770802569119E+04     0.119239614084560E+04     0.147232368449161E+05     0.711211516482464E+04     0.000000000000000E+00    -0.981694008464793E+04
     0.534000000000000E+00     0.930897435897436E+01    -0.974010251697190E+04     0.692976863612520E+04     0.955397905471074E+03     0.145988459406707E+05     0.698434652717376E+04     0.000000000000000E+00    -0.979468040802046E+04
     0.400500000000000E+00     0.930897435897436E+01    -0.974596583794712E+04     0.685357032048024E+04     0.717412452464179E+03     0.145015164842999E+05     0.688451834468078E+04     0.000000000000000E+00    -0.977691386214766E+04
     0.267000000000000E+00     0.930897435897436E+01    -0.975014100105888E+04     0.679913050491019E+04     0.478686447611302E+03     0.144316779487413E+05     0.681296490990395E+04     0.000000000000000E+00    -0.976397540605263E+04
     0.133500000000000E+00     0.930897435897436E+01    -0.975264092960629E+04     0.676646163666711E+04     0.239466675517433E+03     0.143896459912932E+05     0.676993229997642E+04     0.000000000000000E+00    -0.975611159291561E+04
     0.000000000000000E+00     0.930897435897436E+01    -0.975347337756882E+04     0.675557118410259E+04    -0.302493236442708E-10     0.143756136788951E+05     0.675557118410259E+04     0.000000000000000E+00    -0.975347337756882E+04
     0.270000000000000E+01     0.937179487179487E+01    -0.954124591793867E+04     0.125643437964586E+05     0.448467935281665E+04     0.207150826538169E+05     0.134395254253575E+05     0.000000000000000E+00    -0.104164275468376E+05
     0.256500000000000E+01     0.937179487179487E+01    -0.958440348943841E+04     0.121341440385104E+05     0.429209368742787E+04     0.202648212162036E+05     0.129515947682714E+05     0.000000000000000E+00    -0.104018542191994E+05
     0.243000000000000E+01     0.937179487179487E+01    -0.962470964999887E+04     0.117253934982122E+05     0.409465671822001E+04     0.198310876506350E+05     0.124837552267857E+05     0.000000000000000E+00    -0.103830713785723E+05
     0.229500000000000E+01     0.937179487179487E+01    -0.966226516837972E+04     0.113381888558378E+05     0.389261912808930E+04     0.194145289151733E+05     0.120364997385698E+05     0.000000000000000E+00    -0.103605760511117E+05
     0.216000000000000E+01     0.937179487179487E+01    -0.969716536638061E+04     0.109726215656995E+05     0.368623235380499E+04     0.190158274311429E+05     0.116103454683932E+05     0.000000000000000E+00    -0.103348892690742E+05
     0.202500000000000E+01     0.937179487179487E+01    -0.972950011884122E+04     0.106287778561497E+05     0.347574854412755E+04     0.186356988202340E+05     0.112058323621144E+05     0.000000000000000E+00    -0.103065546248059E+05
     0.189000000000000E+01     0.937179487179487E+01    -0.975935385364125E+04     0.103067387295794E+05     0.326142051792681E+04     0.182748885797876E+05     0.108235209524213E+05     0.000000000000000E+00    -0.102761360764832E+05
     0.175500000000000E+01     0.937179487179487E+01    -0.978680555170043E+04     0.100065799624193E+05     0.304350172230013E+04     0.179341675575354E+05     0.104639893036239E+05     0.000000000000000E+00    -0.102442148929051E+05
     0.162000000000000E+01     0.937179487179487E+01    -0.981192874697850E+04     0.972837210513899E+04     0.282224619069056E+04     0.176143261055922E+05     0.101278289924765E+05     0.000000000000000E+00    -0.102113856343160E+05
     0.148500000000000E+01     0.937179487179487E+01    -0.983479152647521E+04     0.947218048224773E+04     0.259790850100503E+04     0.173161668258405E+05     0.981564004220724E+04     0.000000000000000E+00    -0.101782510864347E+05
     0.135000000000000E+01     0.937179487179487E+01    -0.985545653023034E+04     0.923806519229384E+04     0.237074373373247E+04     0.170404958670665E+05     0.952802475977005E+04     0.000000000000000E+00    -0.101454160977066E+05
     0.121500000000000E+01     0.937179487179487E+01    -0.987398095132369E+04     0.902608110786483E+04     0.214100743006201E+04     0.167881127993518E+05     0.926558047328327E+04     0.000000000000000E+00    -0.101134803167421E+05
     0.108000000000000E+01     0.937179487179487E+01    -0.989041653587506E+04     0.883627787558781E+04     0.190895555000112E+04     0.165597991726849E+05     0.902889122790384E+04     0.000000000000000E+00    -0.100830298881911E+05
     0.945000000000000E+00     0.937179487179487E+01    -0.990480958304433E+04     0.866869991612877E+04     0.167484443049382E+04     0.163563059617120E+05     0.881851857246264E+04     0.000000000000000E+00    -0.100546282393782E+05
     0.810000000000000E+00     0.937179487179487E+01    -0.991720094503130E+04     0.852338642419333E+04     0.143893074353879E+04     0.161783402014927E+05     0.863499165219269E+04     0.000000000000000E+00    -0.100288061730307E+05
     0.675000000000000E+00     0.937179487179487E+01    -0.992762602707588E+04     0.840037136852604E+04     0.120147145430755E+04     0.160265512217837E+05     0.847879690838122E+04     0.000000000000000E+00    -0.100060515669311E+05
     0.540000000000000E+00     0.937179487179487E+01    -0.993611478745795E+04     0.829968349191110E+04     0.962723779262653E+03     0.159015169790845E+05     0.835036776498002E+04     0.000000000000000E+00    -0.998679906052687E+04
     0.405000000000000E+00     0.937179487179487E+01    -0.994269173749743E+04     0.822134631117151E+04     0.722945144275816E+03     0.158037310543808E+05     0.825007474464780E+04     0.000000000000000E+00    -0.997142017097372E+04
     0.270000000000000E+00     0.937179487179487E+01    -0.994737594155425E+04     0.816537811717016E+04     0.482393142746099E+03     0.157335909184112E+05     0.817821649169642E+04     0.000000000000000E+00    -0.996021431608051E+04
     0.135000000000000E+00     0.937179487179487E+01    -0.995018101702836E+04     0.813179197480847E+04     0.241325493718071E+03     0.156913880557811E+05     0.813501217783814E+04     0.000000000000000E+00    -0.995340122005803E+04
     0.000000000000000E+00     0.937179487179487E+01    -0.995111513435974E+04     0.812059572302783E+04    -0.303074910291374E-10     0.156773004791508E+05     0.812059572302783E+04     0.000000000000000E+00    -0.995111513435974E+04
     0.273000000000000E+01     0.943461538461538E+01    -0.970707384581700E+04     0.140527947550885E+05     0.450491585051253E+04     0.221134040790905E+05     0.148782571742692E+05     0.000000000000000E+00    -0.105325362649977E+05
     0.259350000000000E+01     0.943461538461538E+01    -0.975477710263627E+04     0.136107508506463E+05     0.431270533412804E+04     0.216558615087257E+05     0.143813559536125E+05     0.000000000000000E+00    -0.105253822056025E+05
     0.245700000000000E+01     0.943461538461538E+01    -0.979936192987616E+04     0.131907334986711E+05     0.411543113681041E+04     0.212154197805552E+05     0.139052269467530E+05     0.000000000000000E+00    -0.105138553779581E+05
     0.232050000000000E+01     0.943461538461538E+01    -0.984093444996566E+04     0.127928441253276E+05     0.391335485512390E+04     0.207927254297216E+05     0.134503579280639E+05     0.000000000000000E+00    -0.104984482527020E+05
     0.218400000000000E+01     0.943461538461538E+01    -0.987959504898623E+04     0.124171786742852E+05     0.370673888232876E+04     0.203884565609863E+05     0.130172573617524E+05     0.000000000000000E+00    -0.104796737364535E+05
     0.204750000000000E+01     0.943461538461538E+01    -0.991543837667182E+04     0.120638276067175E+05     0.349584636412033E+04     0.200033202082048E+05     0.126064526373564E+05     0.000000000000000E+00    -0.104580634073107E+05
     0.191100000000000E+01     0.943461538461538E+01    -0.994855334640886E+04     0.117328759013032E+05     0.328094115436814E+04     0.196380487062212E+05     0.122184876198370E+05     0.000000000000000E+00    -0.104341650649426E+05
     0.177450000000000E+01     0.943461538461538E+01    -0.997902313523629E+04     0.114244030542255E+05     0.306228777085503E+04     0.192933949692101E+05     0.118539194312764E+05     0.000000000000000E+00    -0.104085395122872E+05
     0.163800000000000E+01     0.943461538461538E+01    -0.100069251838455E+05     0.111384830791719E+05     0.284015135101630E+04     0.189701265906404E+05     0.115133143940137E+05     0.000000000000000E+00    -0.103817564986873E+05
     0.150150000000000E+01     0.943461538461538E+01    -0.100323311965804E+05     0.108751845073348E+05     0.261479760767876E+04     0.186690187127049E+05     0.111972430864644E+05     0.000000000000000E+00    -0.103543897757100E+05
     0.136500000000000E+01     0.943461538461538E+01    -0.100553071414375E+05     0.106345703874111E+05     0.238649278479987E+04     0.183908456584194E+05     0.109062744940450E+05     0.000000000000000E+00    -0.103270112480713E+05
     0.122850000000000E+01     0.943461538461538E+01    -0.100759132500655E+05     0.104166982856025E+05     0.215550361320688E+04     0.181363713778032E+05     0.106409692790791E+05     0.000000000000000E+00    -0.103001842435420E+05
     0.109200000000000E+01     0.943461538461538E+01    -0.100942040177658E+05     0.102216202856151E+05     0.192209726633590E+04     0.179063388294335E+05     0.104018722447674E+05     0.000000000000000E+00    -0.102744559769181E+05
     0.955500000000000E+00     0.943461538461538E+01    -0.101102282034923E+05     0.100493829886597E+05     0.168654131597102E+04     0.177014584972688E+05     0.101895041274073E+05     0.000000000000000E+00    -0.102503493422399E+05
     0.819000000000000E+00     0.943461538461538E+01    -0.101240288298513E+05     0.990002751345161E+04     0.144910368798345E+04     0.175223963250706E+05     0.100043529145293E+05     0.000000000000000E+00    -0.102283542309290E+05
     0.682500000000000E+00     0.943461538461538E+01    -0.101356431831017E+05     0.977358949621086E+04     0.121005261807061E+04     0.173697614302213E+05     0.984686494936185E+04     0.000000000000000E+00    -0.102089186362527E+05
     0.546000000000000E+00     0.943461538461538E+01    -0.101451028131548E+05     0.967009909066217E+04     0.969656607495239E+03     0.172440940269487E+05     0.971743613749166E+04     0.000000000000000E+00    -0.101924398599843E+05
     0.409500000000000E+00     0.943461538461538E+01    -0.101524335335744E+05     0.958958096803460E+04     0.728184378824514E+03     0.171458540369860E+05     0.961640361246466E+04     0.000000000000000E+00    -0.101792561780045E+05
     0.273000000000000E+00     0.943461538461538E+01    -0.101576554215767E+05     0.953205431706231E+04     0.485904831669169E+03     0.170754108851208E+05     0.954403823628974E+04     0.000000000000000E+00    -0.101696393408041E+05
     0.136500000000000E+00     0.943461538461538E+01    -0.101607828180306E+05     0.949753284398347E+04     0.243086998422598E+03     0.170330349614790E+05     0.950053830269295E+04     0.000000000000000E+00    -0.101637882767401E+05
     0.000000000000000E+00     0.943461538461538E+01    -0.101618243274573E+05     0.948602477254134E+04    -0.299811584406533E-10     0.170188911786827E+05     0.948602477254134E+04     0.000000000000000E+00    -0.101618243274573E+05
     0.276000000000000E+01     0.949743589743590E+01    -0.988406379469900E+04     0.155440658521854E+05     0.452260576768942E+04     0.235438554110530E+05     0.163244964718722E+05     0.000000000000000E+00    -0.106644944143857E+05
     0.262200000000000E+01     0.949743589743590E+01    -0.993655845902032E+04     0.150899515619641E+05     0.433094526971672E+04     0.230793257869253E+05     0.158182462299230E+05     0.000000000000000E+00    -0.106648531269793E+05
     0.248400000000000E+01     0.949743589743590E+01    -0.998565365461505E+04     0.146584516203275E+05     0.413400144488405E+04     0.226324459051125E+05     0.153334351506491E+05     0.000000000000000E+00    -0.106606371849366E+05
     0.234600000000000E+01     0.949743589743590E+01    -0.100314610816925E+05     0.142496723794443E+05     0.393204717412645E+04     0.222038598715390E+05     0.148705458308828E+05     0.000000000000000E+00    -0.106523345331310E+05
     0.220800000000000E+01     0.949743589743590E+01    -0.100740864026127E+05     0.138637144427170E+05     0.372535617982218E+04     0.217942397929638E+05     0.144300785164322E+05     0.000000000000000E+00    -0.106404504763279E+05
     0.207000000000000E+01     0.949743589743590E+01    -0.101136292418868E+05     0.135006726647826E+05     0.351420297904586E+04     0.214042828523978E+05     0.140125491167575E+05     0.000000000000000E+00    -0.106255056938616E+05
     0.193200000000000E+01     0.949743589743590E+01    -0.101501831861765E+05     0.131606361515120E+05     0.329886283682157E+04     0.210347074726124E+05     0.136184865956493E+05     0.000000000000000E+00    -0.106080336303139E+05
     0.179400000000000E+01     0.949743589743590E+01    -0.101838357842946E+05     0.128436882600103E+05     0.307961171937608E+04     0.206862484886163E+05     0.132484296776727E+05     0.000000000000000E+00    -0.105885772019570E+05
     0.165600000000000E+01     0.949743589743590E+01    -0.102146685472046E+05     0.125499065986168E+05     0.285672624739196E+04     0.203596512721637E+05     0.129029228242865E+05     0.000000000000000E+00    -0.105676847728743E+05
     0.151800000000000E+01     0.949743589743590E+01    -0.102427569480208E+05     0.122793630269048E+05     0.263048364926077E+04     0.200556647830713E+05     0.125825114546455E+05     0.000000000000000E+00    -0.105459053757615E+05
     0.138000000000000E+01     0.949743589743590E+01    -0.102681704220085E+05     0.120321236556816E+05     0.240116171433617E+04     0.197750335638508E+05     0.122877364146869E+05     0.000000000000000E+00    -0.105237831810138E+05
     0.124200000000000E+01     0.949743589743590E+01    -0.102909723665838E+05     0.118082488469893E+05     0.216903874618712E+04     0.195184887455897E+05     0.120191277341844E+05     0.000000000000000E+00    -0.105018512537789E+05
     0.110400000000000E+01     0.949743589743590E+01    -0.103112201413137E+05     0.116077932141032E+05     0.193439351585102E+04     0.192867381926540E+05     0.117771977541601E+05     0.000000000000000E+00    -0.104806246813705E+05
     0.966000000000000E+00     0.949743589743590E+01    -0.103289650679158E+05     0.114308056215335E+05     0.169750521508685E+04     0.190804559788335E+05     0.115624337545103E+05     0.000000000000000E+00    -0.104605932008926E+05
     0.828000000000000E+00     0.949743589743590E+01    -0.103442524302588E+05     0.112773291850240E+05     0.145865340962835E+04     0.189002714537540E+05     0.113752902608936E+05     0.000000000000000E+00    -0.104422135061284E+05
     0.690000000000000E+00     0.949743589743590E+01    -0.103571214743623E+05     0.111474012715530E+05     0.121811799243718E+04     0.187467582202137E+05     0.112161812567963E+05     0.000000000000000E+00    -0.104259014596056E+05
     0.552000000000000E+00     0.949743589743590E+01    -0.103676054083965E+05     0.110410534993327E+05     0.976179136956038E+03     0.186204233941041E+05     0.110854725663100E+05     0.000000000000000E+00    -0.104120244753738E+05
     0.414000000000000E+00     0.949743589743590E+01    -0.103757314026826E+05     0.109583117378094E+05     0.733117250361858E+03     0.185216975520695E+05     0.109834747003365E+05     0.000000000000000E+00    -0.104008943652097E+05
     0.276000000000000E+00     0.949743589743590E+01    -0.103815205896927E+05     0.108991961076640E+05     0.489212926818949E+03     0.184509257820209E+05     0.109104364688534E+05     0.000000000000000E+00    -0.103927609508821E+05
     0.138000000000000E+00     0.949743589743590E+01    -0.103849880640496E+05     0.108637209808107E+05     0.244746900732143E+03     0.184083602336682E+05     0.108665396508951E+05     0.000000000000000E+00    -0.103878067341340E+05
     0.000000000000000E+00     0.949743589743590E+01    -0.103861428825270E+05     0.108518949803987E+05    -0.292599142925941E-10     0.183941545186091E+05     0.108518949803987E+05     0.000000000000000E+00    -0.103861428825270E+05
     0.279000000000000E+01     0.956025641025641E+01    -0.100726930312910E+05     0.170382288004842E+05     0.453764850046333E+04     0.250030397313151E+05     0.177775492594870E+05     0.000000000000000E+00    -0.108120134902938E+05
     0.265050000000000E+01     0.956025641025641E+01    -0.101302330088535E+05     0.165718146973225E+05     0.434671913076743E+04     0.245317123137546E+05     0.172615816028601E+05     0.000000000000000E+00    -0.108199999143911E+05
     0.251100000000000E+01     0.956025641025641E+01    -0.101840779944950E+05     0.161286133325454E+05     0.415027933478044E+04     0.240785615106163E+05     0.167677107490692E+05     0.000000000000000E+00    -0.108231754110187E+05
     0.237150000000000E+01     0.956025641025641E+01    -0.102343454972429E+05     0.157087361693486E+05     0.394861365783610E+04     0.236442276789460E+05     0.162964143920571E+05     0.000000000000000E+00    -0.108220237199514E+05
     0.223200000000000E+01     0.956025641025641E+01    -0.102811466742855E+05     0.153122886458900E+05     0.374200753344695E+04     0.232293759524817E+05     0.158481852550435E+05     0.000000000000000E+00    -0.108170432834390E+05
     0.209250000000000E+01     0.956025641025641E+01    -0.103245863309716E+05     0.149393701752901E+05     0.353074723396106E+04     0.228346931079779E+05     0.154235289532250E+05     0.000000000000000E+00    -0.108087451089066E+05
     0.195300000000000E+01     0.956025641025641E+01    -0.103647629208108E+05     0.145900741456316E+05     0.331511982121879E+04     0.224608835931109E+05     0.150229612897447E+05     0.000000000000000E+00    -0.107976500649239E+05
     0.181350000000000E+01     0.956025641025641E+01    -0.104017685454733E+05     0.142644879199601E+05     0.309541309720949E+04     0.221086646585120E+05     0.146470049420863E+05     0.000000000000000E+00    -0.107842855675995E+05
     0.167400000000000E+01     0.956025641025641E+01    -0.104356889547899E+05     0.139626928362828E+05     0.287191555472826E+04     0.217787605586888E+05     0.142961855104863E+05     0.000000000000000E+00    -0.107691816289934E+05
     0.153450000000000E+01     0.956025641025641E+01    -0.104666035467522E+05     0.136847642075701E+05     0.264491632803266E+04     0.214718958166246E+05     0.139710269199806E+05     0.000000000000000E+00    -0.107528662591628E+05
     0.139500000000000E+01     0.956025641025641E+01    -0.104945853675125E+05     0.134307713217542E+05     0.241470514349947E+04     0.211887875847364E+05     0.136720461934849E+05     0.000000000000000E+00    -0.107358602392432E+05
     0.125550000000000E+01     0.956025641025641E+01    -0.105197011113837E+05     0.132007774417301E+05     0.218157227028140E+04     0.209301371800382E+05     0.133997476445563E+05     0.000000000000000E+00    -0.107186713142099E+05
     0.111600000000000E+01     0.956025641025641E+01    -0.105420111208393E+05     0.129948398053548E+05     0.194580847096381E+04     0.206966209222021E+05     0.131546165742014E+05     0.000000000000000E+00    -0.107017878896859E+05
     0.976500000000000E+00     0.956025641025641E+01    -0.105615693865137E+05     0.128130096254481E+05     0.170770495222150E+04     0.204888804571829E+05     0.129371125945505E+05     0.000000000000000E+00    -0.106856723556160E+05
     0.837000000000000E+00     0.956025641025641E+01    -0.105784235472017E+05     0.126553320897920E+05     0.146755331547538E+04     0.203075128025200E+05     0.127476627408565E+05     0.000000000000000E+00    -0.106707541982662E+05
     0.697500000000000E+00     0.956025641025641E+01    -0.105926148898590E+05     0.125218463611310E+05     0.122564550754924E+04     0.201530603988724E+05     0.125866545688638E+05     0.000000000000000E+00    -0.106574230975918E+05
     0.558000000000000E+00     0.956025641025641E+01    -0.106041783496018E+05     0.124125855771717E+05     0.982273771326472E+03     0.200260014907196E+05     0.124544294633968E+05     0.000000000000000E+00    -0.106460222358269E+05
     0.418500000000000E+00     0.956025641025641E+01    -0.106131425097072E+05     0.123275768505834E+05     0.737730596406793E+03     0.199267411824318E+05     0.123512764022664E+05     0.000000000000000E+00    -0.106368420613902E+05
     0.279000000000000E+00     0.956025641025641E+01    -0.106195296016127E+05     0.122668412689978E+05     0.492308669762998E+03     0.198556035197043E+05     0.122774264239003E+05     0.000000000000000E+00    -0.106301147565151E+05
     0.139500000000000E+00     0.956025641025641E+01    -0.106233555049167E+05     0.122303938950088E+05     0.246300826397682E+03     0.198128249276575E+05     0.122330480351048E+05     0.000000000000000E+00    -0.106260096450126E+05
     0.000000000000000E+00     0.956025641025641E+01    -0.106246297473781E+05     0.122182437661729E+05    -0.281333471340731E-10     0.197985492947664E+05     0.122182437661729E+05     0.000000000000000E+00    -0.106246297473781E+05
     0.282000000000000E+01     0.962307692307692E+01    -0.102734545144943E+05     0.185353565771130E+05     0.454994149829489E+04     0.264883249134545E+05     0.192368726108055E+05     0.000000000000000E+00    -0.109749705481867E+05
     0.267900000000000E+01     0.962307692307692E+01    -0.103363020513671E+05     0.180564100011368E+05     0.435993072542568E+04     0.260103167561038E+05     0.187108290507726E+05     0.000000000000000E+00    -0.109907211010030E+05
     0.253800000000000E+01     0.962307692307692E+01    -0.103951441166080E+05     0.176012852811748E+05     0.416417478545702E+04     0.255509924821170E+05     0.182075345026091E+05     0.000000000000000E+00    -0.110013933380423E+05
     0.239700000000000E+01     0.962307692307692E+01    -0.104501042661680E+05     0.171700991814676E+05     0.396297027763306E+04     0.251109878747573E+05     0.177274621972480E+05     0.000000000000000E+00    -0.110074672819485E+05
     0.225600000000000E+01     0.962307692307692E+01    -0.105012993772981E+05     0.167629621546751E+05     0.375661473816630E+04     0.246909606074834E+05     0.172710981298771E+05     0.000000000000000E+00    -0.110094353525002E+05
     0.211500000000000E+01     0.962307692307692E+01    -0.105488396485492E+05     0.163799783418766E+05     0.354540658818381E+04     0.242915869595407E+05     0.168389388190978E+05     0.000000000000000E+00    -0.110078001257703E+05
     0.197400000000000E+01     0.962307692307692E+01    -0.105928285997720E+05     0.160212455725710E+05     0.332964508167346E+04     0.239135577623994E+05     0.164314885514363E+05     0.000000000000000E+00    -0.110030715786373E+05
     0.183300000000000E+01     0.962307692307692E+01    -0.106333630721175E+05     0.156868553646762E+05     0.310963025343007E+04     0.235575735369177E+05     0.160492560816864E+05     0.000000000000000E+00    -0.109957637891277E+05
     0.169200000000000E+01     0.962307692307692E+01    -0.106705332280363E+05     0.153768929245301E+05     0.288566286700165E+04     0.232243388027349E+05     0.156927507737055E+05     0.000000000000000E+00    -0.109863910772117E+05
     0.155100000000000E+01     0.962307692307692E+01    -0.107044225512790E+05     0.150914371468897E+05     0.265804436263558E+04     0.229145555693853E+05     0.153624781849188E+05     0.000000000000000E+00    -0.109754635893081E+05
     0.141000000000000E+01     0.962307692307692E+01    -0.107351078468964E+05     0.148305606149315E+05     0.242707680522485E+04     0.226289160527909E+05     0.150589351208523E+05     0.000000000000000E+00    -0.109634823528173E+05
     0.126900000000000E+01     0.962307692307692E+01    -0.107626592412390E+05     0.145943296002513E+05     0.219306283225420E+04     0.223680947003601E+05     0.147826042130701E+05     0.000000000000000E+00    -0.109509338540578E+05
     0.112800000000000E+01     0.962307692307692E+01    -0.107871401819573E+05     0.143828040628647E+05     0.195630560174636E+04     0.221327396513395E+05     0.145339481039192E+05     0.000000000000000E+00    -0.109382842230118E+05
     0.987000000000000E+00     0.962307692307692E+01    -0.108086074380018E+05     0.141960376512063E+05     0.171710874020827E+04     0.219234638040474E+05     0.143134033529503E+05     0.000000000000000E+00    -0.109259731397458E+05
     0.846000000000000E+00     0.962307692307692E+01    -0.108271110996229E+05     0.140340777021306E+05     0.147577629057722E+04     0.217408357050554E+05     0.141213742106258E+05     0.000000000000000E+00    -0.109144076081181E+05
     0.705000000000000E+00     0.962307692307692E+01    -0.108426945783709E+05     0.138969652409109E+05     0.123261266016713E+04     0.215853705136225E+05     0.139582264323541E+05     0.000000000000000E+00    -0.109039557698140E+05
     0.564000000000000E+00     0.962307692307692E+01    -0.108553946070961E+05     0.137847349812407E+05     0.987922568614668E+03     0.214575213237493E+05     0.138242813271562E+05     0.000000000000000E+00    -0.108949409530116E+05
     0.423000000000000E+00     0.962307692307692E+01    -0.108652412399488E+05     0.136974153252322E+05     0.742010995825530E+03     0.213576711422474E+05     0.137198102475372E+05     0.000000000000000E+00    -0.108876361622537E+05
     0.282000000000000E+00     0.962307692307692E+01    -0.108722578523791E+05     0.136350283634177E+05     0.495183129920589E+03     0.212861258210103E+05     0.136450297280203E+05     0.000000000000000E+00    -0.108822592169817E+05
     0.141000000000000E+00     0.962307692307692E+01    -0.108764611411373E+05     0.135975898747483E+05     0.247744315182113E+03     0.212431082231265E+05     0.136000974676941E+05     0.000000000000000E+00    -0.108789687340831E+05
     0.000000000000000E+00     0.962307692307692E+01    -0.108778611242733E+05     0.135851093265952E+05    -0.265910476922449E-10     0.212287538651541E+05     0.135851093265952E+05     0.000000000000000E+00    -0.108778611242733E+05
     0.285000000000000E+01     0.968589743589744E+01    -0.104868571150296E+05     0.200355234331200E+05     0.455938024914659E+04     0.279976764683613E+05     0.207020409928116E+05     0.000000000000000E+00    -0.111533746747212E+05
     0.270750000000000E+01     0.968589743589744E+01    -0.105552829556664E+05     0.195438084465180E+05     0.437048201950007E+04     0.275130553428919E+05     0.201655721639791E+05     0.000000000000000E+00    -0.111770466731275E+05
     0.256500000000000E+01     0.968589743589744E+01    -0.106193774069713E+05     0.190765352973198E+05     0.417559604948484E+04     0.270476082215535E+05     0.196525022529352E+05     0.000000000000000E+00    -0.111953443625867E+05
     0.242250000000000E+01     0.968589743589744E+01    -0.106792703171331E+05     0.186338262459076E+05     0.397503139141124E+04     0.266019658348725E+05     0.191633005539675E+05     0.000000000000000E+00    -0.112087446251930E+05
     0.228000000000000E+01     0.968589743589744E+01    -0.107350845155197E+05     0.182157969439949E+05     0.376909808546844E+04     0.261767782338694E+05     0.186984471585592E+05     0.000000000000000E+00    -0.112177347300841E+05
     0.213750000000000E+01     0.968589743589744E+01    -0.107869358126782E+05     0.178225564346251E+05     0.355810710484233E+04     0.257727113994426E+05     0.182584306449911E+05     0.000000000000000E+00    -0.112228100230443E+05
     0.199500000000000E+01     0.968589743589744E+01    -0.108349330003344E+05     0.174542071521729E+05     0.334237030083331E+04     0.253904431466670E+05     0.178437453000224E+05     0.000000000000000E+00    -0.112244711481839E+05
     0.185250000000000E+01     0.968589743589744E+01    -0.108791778513931E+05     0.171108449223434E+05     0.312220034797419E+04     0.250306582976792E+05     0.174548878533673E+05     0.000000000000000E+00    -0.112232207824171E+05
     0.171000000000000E+01     0.968589743589744E+01    -0.109197651199383E+05     0.167925589621723E+05     0.289791068914798E+04     0.246940431175035E+05     0.170923537192377E+05     0.000000000000000E+00    -0.112195598770037E+05
     0.156750000000000E+01     0.968589743589744E+01    -0.109567825412327E+05     0.164994318800261E+05     0.266981548070575E+04     0.243812790330175E+05     0.167566327563696E+05     0.000000000000000E+00    -0.112139834175762E+05
     0.142500000000000E+01     0.968589743589744E+01    -0.109903108317181E+05     0.162315396756021E+05     0.243822953758449E+04     0.240930356859510E+05     0.164482045785337E+05     0.000000000000000E+00    -0.112069757346497E+05
     0.128250000000000E+01     0.968589743589744E+01    -0.110204236890153E+05     0.159889517399282E+05     0.220346827842493E+04     0.238299634054789E+05     0.161675334710030E+05     0.000000000000000E+00    -0.111990054200901E+05
     0.114000000000000E+01     0.968589743589744E+01    -0.110471877919240E+05     0.157717308553627E+05     0.196584767068936E+04     0.235926852231782E+05     0.159150629938795E+05     0.000000000000000E+00    -0.111905199304407E+05
     0.997500000000000E+00     0.968589743589744E+01    -0.110706628004229E+05     0.155799331955951E+05     0.172568417577953E+04     0.233817885908035E+05     0.156912103791671E+05     0.000000000000000E+00    -0.111819399839949E+05
     0.855000000000000E+00     0.968589743589744E+01    -0.110909013556698E+05     0.154136083256452E+05     0.148329469415445E+04     0.231978169968938E+05     0.154963608532435E+05     0.000000000000000E+00    -0.111736538832681E+05
     0.712500000000000E+00     0.968589743589744E+01    -0.111079490800012E+05     0.152727992018634E+05     0.123899651044824E+04     0.230412617086484E+05     0.153308620378231E+05     0.000000000000000E+00    -0.111660119159609E+05
     0.570000000000000E+00     0.968589743589744E+01    -0.111218445769329E+05     0.151575421719312E+05     0.993107238587960E+03     0.229125538876367E+05     0.151950185983870E+05     0.000000000000000E+00    -0.111593210033886E+05
     0.427500000000000E+00     0.968589743589744E+01    -0.111326194311594E+05     0.150678669748604E+05     0.745944766911474E+03     0.228120573387720E+05     0.150890873172516E+05     0.000000000000000E+00    -0.111538397735506E+05
     0.285000000000000E+00     0.968589743589744E+01    -0.111402982085544E+05     0.150037967409937E+05     0.497827203285281E+03     0.227400621491844E+05     0.150132727672144E+05     0.000000000000000E+00    -0.111497742347750E+05
     0.142500000000000E+00     0.968589743589744E+01    -0.111448984561703E+05     0.149653479920043E+05     0.249072820222352E+03     0.226967794557201E+05     0.149677237499533E+05     0.000000000000000E+00    -0.111472742141192E+05
     0.000000000000000E+00     0.968589743589744E+01    -0.111464307022388E+05     0.149525306408964E+05    -0.246226109150032E-10     0.226823375466156E+05     0.149525306408964E+05     0.000000000000000E+00    -0.111464307022388E+05
     0.288000000000000E+01     0.974871794871795E+01    -0.107134258350623E+05     0.215388049030006E+05     0.456585826463994E+04     0.295295307066573E+05     0.221727211147297E+05     0.000000000000000E+00    -0.113473420467915E+05
     0.273600000000000E+01     0.974871794871795E+01    -0.107877093816373E+05     0.210340822444140E+05     0.437827312255328E+04     0.290383312629470E+05     0.216254856987216E+05     0.000000000000000E+00    -0.113791128359449E+05
     0.259200000000000E+01     0.974871794871795E+01    -0.108573196926397E+05     0.205544324061075E+05     0.418444964004429E+04     0.285667811023483E+05     0.211022993492988E+05     0.000000000000000E+00    -0.114051866358311E+05
     0.244800000000000E+01     0.974871794871795E+01    -0.109223931611635E+05     0.200999833448677E+05     0.398470973145098E+04     0.281155056577013E+05     0.206036279871529E+05     0.000000000000000E+00    -0.114260378034487E+05
     0.230400000000000E+01     0.974871794871795E+01    -0.109830588077028E+05     0.196708561008978E+05     0.377937635209002E+04     0.276851474025680E+05     0.201299466136053E+05     0.000000000000000E+00    -0.114421493204102E+05
     0.216000000000000E+01     0.974871794871795E+01    -0.110394382801521E+05     0.192671647978183E+05     0.356877344042462E+04     0.272763623878598E+05     0.196817369543797E+05     0.000000000000000E+00    -0.114540104367135E+05
     0.201600000000000E+01     0.974871794871795E+01    -0.110916458538062E+05     0.188890166426664E+05     0.335322586023230E+04     0.268898161319389E+05     0.192594846770709E+05     0.000000000000000E+00    -0.114621138882108E+05
     0.187200000000000E+01     0.974871794871795E+01    -0.111397884313603E+05     0.185365119258962E+05     0.313305934277287E+04     0.265261788488323E+05     0.188636761709408E+05     0.000000000000000E+00    -0.114669526764050E+05
     0.172800000000000E+01     0.974871794871795E+01    -0.111839655429100E+05     0.182097440213790E+05     0.290860042895617E+04     0.261861200187319E+05     0.184947948904782E+05     0.000000000000000E+00    -0.114690164120091E+05
     0.158400000000000E+01     0.974871794871795E+01    -0.112242693459509E+05     0.179087993864029E+05     0.268017641150997E+04     0.258703023287110E+05     0.181533172798674E+05     0.000000000000000E+00    -0.114687872394154E+05
     0.144000000000000E+01     0.974871794871795E+01    -0.112607846253795E+05     0.176337575616729E+05     0.244811527714782E+04     0.255793750391171E+05     0.178397083138721E+05     0.000000000000000E+00    -0.114667353775786E+05
     0.129600000000000E+01     0.974871794871795E+01    -0.112935887934920E+05     0.173846911713112E+05     0.221274564873691E+04     0.253139668615373E+05     0.175544167110968E+05     0.000000000000000E+00    -0.114633143332776E+05
     0.115200000000000E+01     0.974871794871795E+01    -0.113227518899854E+05     0.171616659228566E+05     0.197439672746588E+04     0.250746784662438E+05     0.172978698972637E+05     0.000000000000000E+00    -0.114589558643926E+05
     0.100800000000000E+01     0.974871794871795E+01    -0.113483365819568E+05     0.169647406072651E+05     0.173339823501274E+04     0.248620747688007E+05     0.170704688178241E+05     0.000000000000000E+00    -0.114540647925159E+05
     0.864000000000000E+00     0.974871794871795E+01    -0.113703981639037E+05     0.167939670989095E+05     0.149008035571265E+04     0.246766771748245E+05     0.168725827193943E+05     0.000000000000000E+00    -0.114490137843885E+05
     0.720000000000000E+00     0.974871794871795E+01    -0.113889845577241E+05     0.166493903555797E+05     0.124477367872583E+04     0.245189559862877E+05     0.167045440364729E+05     0.000000000000000E+00    -0.114441382386173E+05
     0.576000000000000E+00     0.974871794871795E+01    -0.114041363127159E+05     0.165310484184826E+05     0.997809140205374E+03     0.243893231896774E+05     0.165666435318762E+05     0.000000000000000E+00    -0.114397314261096E+05
     0.432000000000000E+00     0.974871794871795E+01    -0.114158866055778E+05     0.164389724122415E+05     0.749517965465123E+03     0.242881258534677E+05     0.164591258446950E+05     0.000000000000000E+00    -0.114360400380312E+05
     0.288000000000000E+00     0.974871794871795E+01    -0.114242612404085E+05     0.163731865448975E+05     0.500231611147508E+03     0.242156403579244E+05     0.163821855970329E+05     0.000000000000000E+00    -0.114332602925439E+05
     0.144000000000000E+00     0.974871794871795E+01    -0.114292786487073E+05     0.163337081079080E+05     0.250281707391401E+03     0.241720676632188E+05     0.163359641995762E+05     0.000000000000000E+00    -0.114315347403755E+05
     0.000000000000000E+00     0.974871794871795E+01    -0.114309498893736E+05     0.163205474761477E+05    -0.222176380136861E-10     0.241575297922107E+05     0.163205474761477E+05     0.000000000000000E+00    -0.114309498893736E+05
     0.291000000000000E+01     0.981153846153846E+01    -0.109537020278272E+05     0.230452778142233E+05     0.456926706521278E+04     0.310826982180501E+05     0.236486529750044E+05     0.000000000000000E+00    -0.115570771886083E+05
     0.276450000000000E+01     0.981153846153846E+01    -0.110341315008516E+05     0.225273048527472E+05     0.438320227399311E+04     0.305849334237610E+05     0.230903165142468E+05     0.000000000000000E+00    -0.115971431623513E+05
     0.261900000000000E+01     0.981153846153846E+01    -0.111095294638188E+05     0.220350468354553E+05     0.419064031792077E+04     0.301072804289234E+05     0.225566816056394E+05     0.000000000000000E+00    -0.116311642340028E+05
     0.247350000000000E+01     0.981153846153846E+01    -0.111800391148914E+05     0.215686376210513E+05     0.399191639229170E+04     0.296503592751613E+05     0.220482113648677E+05     0.000000000000000E+00    -0.116596128587078E+05
     0.232800000000000E+01     0.981153846153846E+01    -0.112457959117909E+05     0.211282038326330E+05     0.378736678873951E+04     0.292148050266434E+05     0.215653764828486E+05     0.000000000000000E+00    -0.116829685620065E+05
     0.218250000000000E+01     0.981153846153846E+01    -0.113069275717974E+05     0.207138648576926E+05     0.357732883432784E+04     0.288012642587318E+05     0.211086528400859E+05     0.000000000000000E+00    -0.117017155541907E+05
     0.203700000000000E+01     0.981153846153846E+01    -0.113635540717502E+05     0.203257328481171E+05     0.336214083064267E+04     0.284103909532651E+05     0.206785187316778E+05     0.000000000000000E+00    -0.117163399553109E+05
     0.189150000000000E+01     0.981153846153846E+01    -0.114157876480468E+05     0.199639127201874E+05     0.314214199288473E+04     0.280428417938109E+05     0.202754516977490E+05     0.000000000000000E+00    -0.117273266256085E+05
     0.174600000000000E+01     0.981153846153846E+01    -0.114637327966440E+05     0.196285021545790E+05     0.291767238896180E+04     0.276992708725615E+05     0.198999249660925E+05     0.000000000000000E+00    -0.117351556081575E+05
     0.160050000000000E+01     0.981153846153846E+01    -0.115074862730569E+05     0.193195915963620E+05     0.268907287858110E+04     0.273803238423138E+05     0.195524035281685E+05     0.000000000000000E+00    -0.117402982048634E+05
     0.145500000000000E+01     0.981153846153846E+01    -0.115471370923598E+05     0.190372642550005E+05     0.245668505234162E+04     0.270866315716746E+05     0.192333398860130E+05     0.000000000000000E+00    -0.117432127233722E+05
     0.130950000000000E+01     0.981153846153846E+01    -0.115827665291854E+05     0.187815961043535E+05     0.222085117082646E+04     0.268188033884392E+05     0.189431695255296E+05     0.000000000000000E+00    -0.117443399503614E+05
     0.116400000000000E+01     0.981153846153846E+01    -0.116144481177255E+05     0.185526558826741E+05     0.198191410369524E+04     0.265774200237508E+05     0.186823061902449E+05     0.000000000000000E+00    -0.117440984252963E+05
     0.101850000000000E+01     0.981153846153846E+01    -0.116422476517305E+05     0.183505050926098E+05     0.174021726877638E+04     0.263630263966083E+05     0.184511370478643E+05     0.000000000000000E+00    -0.117428796069850E+05
     0.873000000000000E+00     0.981153846153846E+01    -0.116662231845095E+05     0.181751980012024E+05     0.149610457115949E+04     0.261761244026290E+05     0.182500178585709E+05     0.000000000000000E+00    -0.117410430418780E+05
     0.727500000000000E+00     0.981153846153846E+01    -0.116864250289306E+05     0.180267816398886E+05     0.124992034228773E+04     0.260171658906710E+05     0.180792682675812E+05     0.000000000000000E+00    -0.117389116566231E+05
     0.582000000000000E+00     0.981153846153846E+01    -0.117028957574204E+05     0.179052958044989E+05     0.100200927905014E+04     0.258865460238980E+05     0.179391673535724E+05     0.000000000000000E+00    -0.117367673064939E+05
     0.436500000000000E+00     0.981153846153846E+01    -0.117156702019646E+05     0.178107730552586E+05     0.752716382873985E+03     0.257845972263232E+05     0.178299495679688E+05     0.000000000000000E+00    -0.117348467146747E+05
     0.291000000000000E+00     0.981153846153846E+01    -0.117247754541074E+05     0.177432387167873E+05     0.502386898817150E+03     0.257115839103973E+05     0.177518011967216E+05     0.000000000000000E+00    -0.117333379340416E+05
     0.145500000000000E+00     0.981153846153846E+01    -0.117302308649518E+05     0.177027108780989E+05     0.251366254660444E+03     0.256676981651290E+05     0.177048574656434E+05     0.000000000000000E+00    -0.117323774524963E+05
     0.000000000000000E+00     0.981153846153846E+01    -0.117320480451597E+05     0.176892003926018E+05    -0.193657385057742E-10     0.256530565576507E+05     0.176892003926018E+05     0.000000000000000E+00    -0.117320480451597E+05
     0.294000000000000E+01     0.987435897435897E+01    -0.112082436172534E+05     0.245550202967575E+05     0.456949616527647E+04     0.326562900814524E+05     0.251296354298371E+05     0.000000000000000E+00    -0.117828587503331E+05
     0.279300000000000E+01     0.987435897435897E+01    -0.112951162174740E+05     0.240235509855557E+05     0.438516582916352E+04     0.321519593603234E+05     0.245598691338093E+05     0.000000000000000E+00    -0.118314343657276E+05
     0.264600000000000E+01     0.987435897435897E+01    -0.113765820959770E+05     0.235184500248395E+05     0.419407107850042E+04     0.316681920208533E+05     0.240154609542886E+05     0.000000000000000E+00    -0.118735930254260E+05
     0.249900000000000E+01     0.987435897435897E+01    -0.114527915238011E+05     0.230398573860805E+05     0.399656081860460E+04     0.312056027112101E+05     0.234968717569628E+05     0.000000000000000E+00    -0.119098058946833E+05
     0.235200000000000E+01     0.987435897435897E+01    -0.115238866492261E+05     0.225879054747248E+05     0.379298510882067E+04     0.307648193181868E+05     0.230045686561070E+05     0.000000000000000E+00    -0.119405498306083E+05
     0.220500000000000E+01     0.987435897435897E+01    -0.115900014977729E+05     0.221627191301927E+05     0.358369509840779E+04     0.303464794259713E+05     0.225390226107005E+05     0.000000000000000E+00    -0.119663049782807E+05
     0.205800000000000E+01     0.987435897435897E+01    -0.116512619722037E+05     0.217644156258795E+05     0.336904296242711E+04     0.299512262296226E+05     0.221007056639900E+05     0.000000000000000E+00    -0.119875520103142E+05
     0.191100000000000E+01     0.987435897435897E+01    -0.117077858525216E+05     0.213931046691546E+05     0.314938183762907E+04     0.295797039034963E+05     0.216900878260658E+05     0.000000000000000E+00    -0.120047690094328E+05
     0.176400000000000E+01     0.987435897435897E+01    -0.117596827959712E+05     0.210488884013622E+05     0.292506575834083E+04     0.292325524420043E+05     0.213076336102419E+05     0.000000000000000E+00    -0.120184280048509E+05
     0.161700000000000E+01     0.987435897435897E+01    -0.118070543370379E+05     0.207318613978208E+05     0.269644959235361E+04     0.289104020100125E+05     0.209537982471570E+05     0.000000000000000E+00    -0.120289911863741E+05
     0.147000000000000E+01     0.987435897435897E+01    -0.118499938874485E+05     0.204421106678234E+05     0.246388897681014E+04     0.286138668623885E+05     0.206290236152223E+05     0.000000000000000E+00    -0.120369068348474E+05
     0.132300000000000E+01     0.987435897435897E+01    -0.118885867361708E+05     0.201797156546378E+05     0.222774025409193E+04     0.283435389158803E+05     0.203337339418151E+05     0.000000000000000E+00    -0.120426050233481E+05
     0.117600000000000E+01     0.987435897435897E+01    -0.119229100494139E+05     0.199447482355060E+05     0.198836040770676E+04     0.280999810805468E+05     0.200683313457112E+05     0.000000000000000E+00    -0.120464931596192E+05
     0.102900000000000E+01     0.987435897435897E+01    -0.119530328706280E+05     0.197372727216447E+05     0.174610699817595E+04     0.278837204809635E+05     0.198331913067545E+05     0.000000000000000E+00    -0.120489514557379E+05
     0.882000000000000E+00     0.987435897435897E+01    -0.119790161205044E+05     0.195573458582450E+05     0.150133809892184E+04     0.276952417177813E+05     0.196286581625635E+05     0.000000000000000E+00    -0.120503284248229E+05
     0.735000000000000E+00     0.987435897435897E+01    -0.120009125969756E+05     0.194050168244726E+05     0.125441223215511E+04     0.275349803362231E+05     0.194550407430349E+05     0.000000000000000E+00    -0.120509365155379E+05
     0.588000000000000E+00     0.987435897435897E+01    -0.120187669752153E+05     0.192803272334676E+05     0.100568830476216E+04     0.274033166780605E+05     0.193126082603530E+05     0.000000000000000E+00    -0.120510480021007E+05
     0.441000000000000E+00     0.987435897435897E+01    -0.120326158076382E+05     0.191833111323449E+05     0.755525544192494E+03     0.273005702960990E+05     0.192015865741490E+05     0.000000000000000E+00    -0.120508912494423E+05
     0.294000000000000E+00     0.987435897435897E+01    -0.120424875239002E+05     0.191139950021934E+05     0.504283434346127E+03     0.272269951041139E+05     0.191221549476312E+05     0.000000000000000E+00    -0.120506474693380E+05
     0.147000000000000E+00     0.987435897435897E+01    -0.120484024308986E+05     0.190723977580771E+05     0.252321651460921E+03     0.271827754200718E+05     0.190744434005656E+05     0.000000000000000E+00    -0.120504480733871E+05
     0.000000000000000E+00     0.987435897435897E+01    -0.120503727127716E+05     0.190585307490341E+05    -0.160565322575958E-10     0.271680230365087E+05     0.190585307490341E+05     0.000000000000000E+00    -0.120503727127716E+05
     0.297000000000000E+01     0.993717948717949E+01    -0.114776253175894E+05     0.260681117925999E+05     0.456643305837311E+04     0.342496611353274E+05     0.266155150954130E+05     0.000000000000000E+00    -0.120250286204025E+05
     0.282150000000000E+01     0.993717948717949E+01    -0.115712473891672E+05     0.255228966221320E+05     0.438405824543563E+04     0.337387561881924E+05     0.260339946934369E+05     0.000000000000000E+00    -0.120823454604720E+05
     0.267300000000000E+01     0.993717948717949E+01    -0.116590700719585E+05     0.250047146340629E+05     0.419464313876584E+04     0.332488568541297E+05     0.254784945185439E+05     0.000000000000000E+00    -0.121328499564395E+05
     0.252450000000000E+01     0.993717948717949E+01    -0.117412509854755E+05     0.245137121289083E+05     0.399855079306538E+04     0.327805724335054E+05     0.249494737164650E+05     0.000000000000000E+00    -0.121770125730322E+05
     0.237600000000000E+01     0.993717948717949E+01    -0.118179392292569E+05     0.240500274990477E+05     0.379614547715597E+04     0.323345238905455E+05     0.244473965069770E+05     0.000000000000000E+00    -0.122153082371862E+05
     0.222750000000000E+01     0.993717948717949E+01    -0.118892753828675E+05     0.236137912287252E+05     0.358779260652829E+04     0.319113402952260E+05     0.239727297691911E+05     0.000000000000000E+00    -0.122482139233334E+05
     0.207900000000000E+01     0.993717948717949E+01    -0.119553915058988E+05     0.232051258940484E+05     0.337385867589084E+04     0.315116547632717E+05     0.235259402994191E+05     0.000000000000000E+00    -0.122762059112695E+05
     0.193050000000000E+01     0.993717948717949E+01    -0.120164111379682E+05     0.228241461629891E+05     0.315471119171886E+04     0.311360999000068E+05     0.231074917449516E+05     0.000000000000000E+00    -0.122997567199308E+05
     0.178200000000000E+01     0.993717948717949E+01    -0.120724492987200E+05     0.224709587953831E+05     0.293071860480315E+04     0.307853027697711E+05     0.227178412275392E+05     0.000000000000000E+00    -0.123193317308761E+05
     0.163350000000000E+01     0.993717948717949E+01    -0.121236124878245E+05     0.221456626429303E+05     0.270225024279906E+04     0.304598794308598E+05     0.223574356823884E+05     0.000000000000000E+00    -0.123353855272827E+05
     0.148500000000000E+01     0.993717948717949E+01    -0.121699986849786E+05     0.218483486491945E+05     0.246967624277527E+04     0.301604290959392E+05     0.220267079517123E+05     0.000000000000000E+00    -0.123483579874964E+05
     0.133650000000000E+01     0.993717948717949E+01    -0.122116973499053E+05     0.215790998496034E+05     0.223336748376275E+04     0.298875279988855E+05     0.217260726858350E+05     0.000000000000000E+00    -0.123586701861369E+05
     0.118800000000000E+01     0.993717948717949E+01    -0.122487894223541E+05     0.213379913714491E+05     0.199369551930360E+04     0.296417230699765E+05     0.214559221188709E+05     0.000000000000000E+00    -0.123667201697759E+05
     0.103950000000000E+01     0.993717948717949E+01    -0.122813473221010E+05     0.211250904338873E+05     0.175103250999996E+04     0.294235255411140E+05     0.212166217992656E+05     0.000000000000000E+00    -0.123728786874793E+05
     0.891000000000000E+00     0.993717948717949E+01    -0.123094349489483E+05     0.209404563479380E+05     0.150575115606288E+04     0.292334046198945E+05     0.210085063670697E+05     0.000000000000000E+00    -0.123774849680800E+05
     0.742500000000000E+00     0.993717948717949E+01    -0.123331076827244E+05     0.207841405164850E+05     0.125822462986122E+04     0.290717813844099E+05     0.208318754787337E+05     0.000000000000000E+00    -0.123808426449731E+05
     0.594000000000000E+00     0.993717948717949E+01    -0.123524123832845E+05     0.206561864342763E+05     0.100882650847053E+04     0.289390230583043E+05     0.206869899855280E+05     0.000000000000000E+00    -0.123832159345361E+05
     0.445500000000000E+00     0.993717948717949E+01    -0.123673873905098E+05     0.205566296879239E+05     0.757930706221918E+03     0.288354378266307E+05     0.205740684725915E+05     0.000000000000000E+00    -0.123848261751774E+05
     0.297000000000000E+00     0.993717948717949E+01    -0.123780625243080E+05     0.204854979559036E+05     0.505911407250974E+03     0.287612703466438E+05     0.204932842615167E+05     0.000000000000000E+00    -0.123858488299211E+05
     0.148500000000000E+00     0.993717948717949E+01    -0.123844590846134E+05     0.204428110085554E+05     0.253142998046613E+03     0.287166980934838E+05     0.204447629700534E+05     0.000000000000000E+00    -0.123864110461114E+05
     0.000000000000000E+00     0.993717948717949E+01    -0.123865898513862E+05     0.204285807080834E+05    -0.122796515270244E-10     0.287018286589916E+05     0.204285807080834E+05     0.000000000000000E+00    -0.123865898513862E+05
     0.300000000000000E+01     0.100000000000000E+02    -0.117624388530274E+05     0.275846330653010E+05     0.455996320233278E+04     0.358623660966785E+05     0.281061777334370E+05     0.000000000000000E+00    -0.122839835211634E+05
     0.285000000000000E+01     0.100000000000000E+02    -0.118631260479985E+05     0.270254190161630E+05     0.437977206829879E+04     0.353448750886088E+05     0.275125824000438E+05     0.000000000000000E+00    -0.123502894318793E+05
     0.270000000000000E+01     0.100000000000000E+02    -0.119576032040959E+05     0.264939145520231E+05     0.419225592429172E+04     0.348488239316207E+05     0.269456762030354E+05     0.000000000000000E+00    -0.124093648551082E+05
     0.255000000000000E+01     0.100000000000000E+02    -0.120460355728423E+05     0.259902725242309E+05     0.399779242422685E+04     0.343748166407086E+05     0.264059170668363E+05     0.000000000000000E+00    -0.124616801154477E+05
     0.240000000000000E+01     0.100000000000000E+02    -0.121285794732457E+05     0.255146375219008E+05     0.379676049871006E+04     0.339234675067563E+05     0.258937669455765E+05     0.000000000000000E+00    -0.125077088969214E+05
     0.225000000000000E+01     0.100000000000000E+02    -0.122053822917997E+05     0.250671458719122E+05     0.358954028411058E+04     0.334953975306676E+05     0.254096894022306E+05     0.000000000000000E+00    -0.125479258221181E+05
     0.210000000000000E+01     0.100000000000000E+02    -0.122765824824826E+05     0.246479256389095E+05     0.337651305163377E+04     0.330912303948061E+05     0.249541468862810E+05     0.000000000000000E+00    -0.125828037298541E+05
     0.195000000000000E+01     0.100000000000000E+02    -0.123423095667583E+05     0.242570966253016E+05     0.315806113639377E+04     0.327115879818567E+05     0.245275977161956E+05     0.000000000000000E+00    -0.126128106576523E+05
     0.180000000000000E+01     0.100000000000000E+02    -0.124026841335759E+05     0.238947703712626E+05     0.293456786648635E+04     0.323570854661041E+05     0.241304927827772E+05     0.000000000000000E+00    -0.126384065450906E+05
     0.165000000000000E+01     0.100000000000000E+02    -0.124578178393698E+05     0.235610501547316E+05     0.270641749206159E+04     0.320283260188323E+05     0.237632720004499E+05     0.000000000000000E+00    -0.126600396850881E+05
     0.150000000000000E+01     0.100000000000000E+02    -0.125078134080595E+05     0.232560309914122E+05     0.247399511439664E+04     0.317258951876092E+05     0.234263605455010E+05     0.000000000000000E+00    -0.126781429621483E+05
     0.135000000000000E+01     0.100000000000000E+02    -0.125527646310499E+05     0.229797996347733E+05     0.223768661496847E+04     0.314503550279052E+05     0.231201649327188E+05     0.000000000000000E+00    -0.126931299289954E+05
     0.120000000000000E+01     0.100000000000000E+02    -0.125927563672310E+05     0.227324345760482E+05     0.199787858452660E+04     0.312022380839015E+05     0.228450689941539E+05     0.000000000000000E+00    -0.127053907853367E+05
     0.105000000000000E+01     0.100000000000000E+02    -0.126278645429782E+05     0.225140060442357E+05     0.175495825216588E+04     0.309820413324013E+05     0.226014298351804E+05     0.000000000000000E+00    -0.127152883339229E+05
     0.900000000000000E+00     0.100000000000000E+02    -0.126581561521522E+05     0.223245760060989E+05     0.150931341439917E+04     0.307902202182576E+05     0.223895738528228E+05     0.000000000000000E+00    -0.127231539988761E+05
     0.750000000000000E+00     0.100000000000000E+02    -0.126836892560987E+05     0.221641981661661E+05     0.126133236423015E+04     0.306271829204673E+05     0.222097929086324E+05     0.000000000000000E+00    -0.127292839985650E+05
     0.600000000000000E+00     0.100000000000000E+02    -0.127045129836489E+05     0.220329179667305E+05     0.101140382022602E+04     0.304932849938979E+05     0.220623407524486E+05     0.000000000000000E+00    -0.127339357693669E+05
     0.450000000000000E+00     0.100000000000000E+02    -0.127206675311191E+05     0.219307725878501E+05     0.759916855590275E+03     0.303888245315628E+05     0.219474297935226E+05     0.000000000000000E+00    -0.127373247367916E+05
     0.300000000000000E+00     0.100000000000000E+02    -0.127321841623109E+05     0.218577909473476E+05     0.507260827235418E+03     0.303140379857982E+05     0.218652283112558E+05     0.000000000000000E+00    -0.127396215262191E+05
     0.150000000000000E+00     0.100000000000000E+02    -0.127390852085113E+05     0.218139937008111E+05     0.253825304855726E+03     0.302690967734000E+05     0.218158581890449E+05     0.000000000000000E+00    -0.127409496967451E+05
     0.000000000000000E+00     0.100000000000000E+02    -0.127413840684923E+05     0.217993932415931E+05    -0.802474300618407E-11     0.302541047699924E+05     0.217993932415931E+05     0.000000000000000E+00    -0.127413840684923E+05
 zone I=   21 ,j=   21 ,f=point, T="    1"
     0.000000000000000E+00     0.371794871794872E+01    -0.141516720677080E+05    -0.115684703061145E+06     0.355782077278631E-09     0.109298162672964E+06     0.000000000000000E+00    -0.141516720677080E+05    -0.115684703061145E+06
    -0.520000000000000E+00     0.376923076923077E+01    -0.139909324381872E+05    -0.114430656041857E+06    -0.667060077527594E+03     0.108122451704360E+06     0.000000000000000E+00    -0.139865024227906E+05    -0.114435086057254E+06
    -0.104000000000000E+01     0.382051282051282E+01    -0.138626494816929E+05    -0.112948758506221E+06    -0.133352478948541E+04     0.106720011784469E+06     0.000000000000000E+00    -0.138447058324051E+05    -0.112966702155508E+06
    -0.156000000000000E+01     0.387179487179487E+01    -0.137679255678758E+05    -0.111238329580805E+06    -0.199322584099382E+04     0.105090054468378E+06     0.000000000000000E+00    -0.137271820287734E+05    -0.111279073119907E+06
    -0.208000000000000E+01     0.392307692307692E+01    -0.137073252958875E+05    -0.109299463966800E+06    -0.263989625068795E+04     0.103232589038449E+06     0.000000000000000E+00    -0.136344767813011E+05    -0.109372312481387E+06
    -0.260000000000000E+01     0.397435897435897E+01    -0.136808364207155E+05    -0.107133048725914E+06    -0.326719843363479E+04     0.101148452565632E+06     0.000000000000000E+00    -0.135667506246397E+05    -0.107247134521990E+06
    -0.312000000000000E+01     0.402564102564102E+01    -0.136878307795175E+05    -0.104740780066257E+06    -0.386875228425077E+04     0.988393412553216E+05     0.000000000000000E+00    -0.135237469048489E+05    -0.104904863940926E+06
    -0.364000000000000E+01     0.407692307692308E+01    -0.137270252179565E+05    -0.102125180128241E+06    -0.443816325921923E+04     0.963078428472871E+05     0.000000000000000E+00    -0.135047593683185E+05    -0.102347445977879E+06
    -0.416000000000000E+01     0.412820512820513E+01    -0.137964425165359E+05    -0.992896137704633E+05    -0.496905046040797E+04     0.935574698640405E+05     0.000000000000000E+00    -0.135085995398639E+05    -0.995774567471353E+05
    -0.468000000000000E+01     0.417948717948718E+01    -0.138933723169335E+05    -0.962383053556060E+05    -0.545507471778677E+04     0.905926935526786E+05     0.000000000000000E+00    -0.135335641638840E+05    -0.965981135086555E+05
    -0.520000000000000E+01     0.423076923076923E+01    -0.140143320483372E+05    -0.929763555363223E+05    -0.588996667234489E+04     0.874189784580636E+05     0.000000000000000E+00    -0.135774030171518E+05    -0.934132845675077E+05
    -0.572000000000000E+01     0.428205128205128E+01    -0.141550278537790E+05    -0.895097580411302E+05    -0.626755485900859E+04     0.840428177276189E+05     0.000000000000000E+00    -0.136372874454036E+05    -0.900274984495056E+05
    -0.624000000000000E+01     0.433333333333333E+01    -0.143103155164703E+05    -0.858454164603040E+05    -0.658179378955870E+04     0.804717695263317E+05     0.000000000000000E+00    -0.137097800303746E+05    -0.864459519463998E+05
    -0.676000000000000E+01     0.438461538461538E+01    -0.144741613861366E+05    -0.819911610317656E+05    -0.682679203554807E+04     0.767144954141538E+05     0.000000000000000E+00    -0.137908058613716E+05    -0.826745165565306E+05
    -0.728000000000000E+01     0.443589743589744E+01    -0.146396033053522E+05    -0.779557654269763E+05    -0.699684031121913E+04     0.727808023454668E+05     0.000000000000000E+00    -0.138756259676966E+05    -0.787197427646319E+05
    -0.780000000000000E+01     0.448717948717949E+01    -0.147987115358750E+05    -0.737489635368288E+05    -0.708643955642139E+04     0.686816913390147E+05     0.000000000000000E+00    -0.139588135658715E+05    -0.745888615068323E+05
    -0.832000000000000E+01     0.453846153846154E+01    -0.149425496849814E+05    -0.693814662575383E+05    -0.709032901952899E+04     0.644294182899354E+05     0.000000000000000E+00    -0.140342338857829E+05    -0.702897820567368E+05
    -0.884000000000000E+01     0.458974358974359E+01    -0.150611356318008E+05    -0.648649782765348E+05    -0.700351434035819E+04     0.600375767091322E+05     0.000000000000000E+00    -0.140950284506085E+05    -0.658310854577271E+05
    -0.936000000000000E+01     0.464102564102564E+01    -0.151434024536510E+05    -0.602122148583540E+05    -0.682129563308490E+04     0.555212200526780E+05     0.000000000000000E+00    -0.141336047619117E+05    -0.612220125500933E+05
    -0.988000000000000E+01     0.469230769230769E+01    -0.151771593523723E+05    -0.554369186305295E+05    -0.653929556916221E+04     0.508970561508011E+05     0.000000000000000E+00    -0.141416322903111E+05    -0.564724456925907E+05
    -0.104000000000000E+02     0.474358974358974E+01    -0.151490525806628E+05    -0.505538763694843E+05    -0.615348746023789E+04     0.461837753173673E+05     0.000000000000000E+00    -0.141100452437912E+05    -0.515928837063559E+05
     0.000000000000000E+00     0.396923076923077E+01    -0.133251295344113E+05    -0.110099407454869E+06     0.360938354429056E-09     0.104078574803002E+06     0.000000000000000E+00    -0.133251295344113E+05    -0.110099407454869E+06
    -0.500000000000000E+00     0.401794871794872E+01    -0.131879363399597E+05    -0.108910887877353E+06    -0.655114066419476E+03     0.102958636502264E+06     0.000000000000000E+00    -0.131834530438099E+05    -0.108915371173503E+06
    -0.100000000000000E+01     0.406666666666667E+01    -0.130829685091522E+05    -0.107508945395656E+06    -0.131015563197848E+04     0.101626525973163E+06     0.000000000000000E+00    -0.130647936645637E+05    -0.107527120240244E+06
    -0.150000000000000E+01     0.411538461538461E+01    -0.130109815923925E+05    -0.105892923818699E+06    -0.195943896101853E+04     0.100081688022468E+06     0.000000000000000E+00    -0.129696636163164E+05    -0.105934241794775E+06
    -0.200000000000000E+01     0.416410256410256E+01    -0.129722408498028E+05    -0.104062841857513E+06    -0.259718164893742E+04     0.983242691180016E+05     0.000000000000000E+00    -0.128982499244386E+05    -0.104136832782877E+06
    -0.250000000000000E+01     0.421282051282051E+01    -0.129664895562491E+05    -0.102019406770532E+06    -0.321752785184502E+04     0.963551404608539E+05     0.000000000000000E+00    -0.128503899753691E+05    -0.102135506351412E+06
    -0.300000000000000E+01     0.426153846153846E+01    -0.129929173063682E+05    -0.997640280088909E+05    -0.381457151621950E+04     0.941759220086336E+05     0.000000000000000E+00    -0.128255465907196E+05    -0.999313987245394E+05
    -0.350000000000000E+01     0.431025641025641E+01    -0.130501283195935E+05    -0.972988308617267E+05    -0.438237960856345E+04     0.917890073005775E+05     0.000000000000000E+00    -0.128227828000737E+05    -0.975261763812465E+05
    -0.400000000000000E+01     0.435897435897436E+01    -0.131361097451813E+05    -0.946266701014725E+05    -0.491501534506015E+04     0.891975889695617E+05     0.000000000000000E+00    -0.128407365094525E+05    -0.949220433372013E+05
    -0.450000000000000E+01     0.440769230769231E+01    -0.132481999672369E+05    -0.917511436291567E+05    -0.540656142122970E+04     0.864056848871235E+05     0.000000000000000E+00    -0.128775952839836E+05    -0.921217483124100E+05
    -0.500000000000000E+01     0.445641025641026E+01    -0.133830569097409E+05    -0.886766061197008E+05    -0.585114324158520E+04     0.834181649917806E+05     0.000000000000000E+00    -0.129310714903879E+05    -0.891285915390538E+05
    -0.550000000000000E+01     0.450512820512821E+01    -0.135366263415753E+05    -0.854081826672168E+05    -0.624295214928899E+04     0.802407790251560E+05     0.000000000000000E+00    -0.129983780786534E+05    -0.859464309301387E+05
    -0.600000000000000E+01     0.455384615384615E+01    -0.137041101815497E+05    -0.819517824303049E+05    -0.657626865580878E+04     0.768801856896360E+05     0.000000000000000E+00    -0.130762053239743E+05    -0.825796872878803E+05
    -0.650000000000000E+01     0.460256410256410E+01    -0.138799348034275E+05    -0.783141122773515E+05    -0.684548567057386E+04     0.733439842218649E+05     0.000000000000000E+00    -0.131606989009991E+05    -0.790333481797799E+05
    -0.700000000000000E+01     0.465128205128205E+01    -0.140577193409521E+05    -0.745026904318266E+05    -0.704513173063130E+04     0.696407501806159E+05     0.000000000000000E+00    -0.132474397236438E+05    -0.753129700491348E+05
    -0.750000000000000E+01     0.470000000000000E+01    -0.142302439928730E+05    -0.705258601175813E+05    -0.716989423030208E+04     0.657800786101848E+05     0.000000000000000E+00    -0.133314260551415E+05    -0.714246780553127E+05
    -0.800000000000000E+01     0.474871794871795E+01    -0.143894183279721E+05    -0.663928032041466E+05    -0.721464265083737E+04     0.617726400891897E+05     0.000000000000000E+00    -0.134070584717103E+05    -0.673751630604084E+05
    -0.850000000000000E+01     0.479743589743590E+01    -0.145262495900900E+05    -0.621135538520294E+05    -0.717445179007462E+04     0.576302593137042E+05     0.000000000000000E+00    -0.134681283393128E+05    -0.631716751028066E+05
    -0.900000000000000E+01     0.484615384615385E+01    -0.146308110031517E+05    -0.576990121580117E+05    -0.704462499209382E+04     0.533660333592970E+05     0.000000000000000E+00    -0.135078105092155E+05    -0.588220126519479E+05
    -0.950000000000000E+01     0.489487179487180E+01    -0.146922100761934E+05    -0.531609578004477E+05    -0.682071737687363E+04     0.489945207950206E+05     0.000000000000000E+00    -0.135186608837011E+05    -0.543345069929400E+05
    -0.100000000000000E+02     0.494358974358974E+01    -0.146985569083882E+05    -0.485120636845613E+05    -0.649855906994759E+04     0.445320601282938E+05     0.000000000000000E+00    -0.134926191625992E+05    -0.497180014303503E+05
     0.000000000000000E+00     0.422051282051282E+01    -0.125729060348012E+05    -0.104521240593153E+06     0.361502265599829E-09     0.988363898808180E+05     0.000000000000000E+00    -0.125729060348012E+05    -0.104521240593153E+06
    -0.480000000000000E+00     0.426666666666667E+01    -0.124568137957944E+05    -0.103398063482127E+06    -0.643226982820902E+03     0.977730154030687E+05     0.000000000000000E+00    -0.124522644822915E+05    -0.103402612795630E+06
    -0.960000000000000E+00     0.431282051282051E+01    -0.123721607529868E+05    -0.102075564048932E+06    -0.128675596988020E+04     0.965119840901550E+05     0.000000000000000E+00    -0.123537065995275E+05    -0.102094018202392E+06
    -0.144000000000000E+01     0.435897435897436E+01    -0.123194142584926E+05    -0.100553114107950E+06    -0.192536521007498E+04     0.950529449852970E+05     0.000000000000000E+00    -0.122774204656465E+05    -0.100595107900796E+06
    -0.192000000000000E+01     0.440512820512820E+01    -0.122985995289421E+05    -0.988306689439802E+05    -0.255374079523182E+04     0.933961596208117E+05     0.000000000000000E+00    -0.122232988698452E+05    -0.989059696030771E+05
    -0.240000000000000E+01     0.445128205128205E+01    -0.123092741727966E+05    -0.969087783039727E+05    -0.316649572954147E+04     0.915425196657316E+05     0.000000000000000E+00    -0.121909201984467E+05    -0.970271322783226E+05
    -0.288000000000000E+01     0.449743589743590E+01    -0.123505027176647E+05    -0.947885973887485E+05    -0.375818899899407E+04     0.894935653346565E+05     0.000000000000000E+00    -0.121795289393946E+05    -0.949595711670186E+05
    -0.336000000000000E+01     0.454358974358974E+01    -0.124208311376177E+05    -0.924718978447280E+05    -0.432334464081424E+04     0.872515044896098E+05     0.000000000000000E+00    -0.121880159269333E+05    -0.927047130554124E+05
    -0.384000000000000E+01     0.458974358974359E+01    -0.125182613805057E+05    -0.899610787556551E+05    -0.485647081289619E+04     0.848192324134440E+05     0.000000000000000E+00    -0.122148984543131E+05    -0.902644416818477E+05
    -0.432000000000000E+01     0.463589743589744E+01    -0.126402258952731E+05    -0.872591776343241E+05    -0.535207886323889E+04     0.822003523097281E+05     0.000000000000000E+00    -0.122583003870701E+05    -0.876411031425271E+05
    -0.480000000000000E+01     0.468205128205128E+01    -0.127835621592745E+05    -0.843698814143048E+05    -0.580470239938118E+04     0.793991967072064E+05     0.000000000000000E+00    -0.123159324122302E+05    -0.848375111613491E+05
    -0.528000000000000E+01     0.472820512820513E+01    -0.129444872055904E+05    -0.812975374416687E+05    -0.620891635783692E+04     0.764208501447830E+05     0.000000000000000E+00    -0.123850725568321E+05    -0.818569520904269E+05
    -0.576000000000000E+01     0.477435897435897E+01    -0.131185721503428E+05    -0.780471644667138E+05    -0.655935607353007E+04     0.732711738316634E+05     0.000000000000000E+00    -0.124625470971370E+05    -0.787031895199196E+05
    -0.624000000000000E+01     0.482051282051282E+01    -0.133007167200113E+05    -0.746244636356919E+05    -0.685073634922988E+04     0.699568334943739E+05     0.000000000000000E+00    -0.125447119479127E+05    -0.753804684077906E+05
    -0.672000000000000E+01     0.486666666666667E+01    -0.134851237787488E+05    -0.710358294825324E+05    -0.707787052498600E+04     0.664853324712072E+05     0.000000000000000E+00    -0.126274345505681E+05    -0.718935187107131E+05
    -0.720000000000000E+01     0.491282051282051E+01    -0.136652738556968E+05    -0.672883609205695E+05    -0.723568954756359E+04     0.628650535300308E+05     0.000000000000000E+00    -0.127060761337040E+05    -0.682475586425623E+05
    -0.768000000000000E+01     0.495897435897436E+01    -0.138338996723017E+05    -0.633898722342673E+05    -0.731926103987847E+04     0.591053152922884E+05     0.000000000000000E+00    -0.127754739285769E+05    -0.644482979779921E+05
    -0.816000000000000E+01     0.500512820512821E+01    -0.139829606696304E+05    -0.593489040709458E+05    -0.732380837043225E+04     0.552164533381265E+05     0.000000000000000E+00    -0.128299223388325E+05    -0.605019424017437E+05
    -0.864000000000000E+01     0.505128205128205E+01    -0.141036175356859E+05    -0.551747344325061E+05    -0.724472972274745E+04     0.512099435802106E+05     0.000000000000000E+00    -0.128631508751894E+05    -0.564152010930025E+05
    -0.912000000000000E+01     0.509743589743590E+01    -0.141862067327233E+05    -0.508773896671566E+05    -0.707761716480265E+04     0.470985994182649E+05     0.000000000000000E+00    -0.128682941629296E+05    -0.521953022369503E+05
    -0.960000000000000E+01     0.514358974358974E+01    -0.142202150245653E+05    -0.464676554611389E+05    -0.681827571846759E+04     0.428969010346238E+05     0.000000000000000E+00    -0.128378438044231E+05    -0.478500266812810E+05
     0.000000000000000E+00     0.447179487179487E+01    -0.118913650921186E+05    -0.989507955644506E+05     0.357668382844908E-09     0.935735244093076E+05     0.000000000000000E+00    -0.118913650921186E+05    -0.989507955644506E+05
    -0.460000000000000E+00     0.451538461538462E+01    -0.117939526729129E+05    -0.978927365072361E+05    -0.631108369434928E+03     0.925674768612589E+05     0.000000000000000E+00    -0.117893268656931E+05    -0.978973623144560E+05
    -0.920000000000000E+00     0.455897435897436E+01    -0.117267261690091E+05    -0.966491171286971E+05    -0.126276538380186E+04     0.913781918545032E+05     0.000000000000000E+00    -0.117079534521601E+05    -0.966678898455462E+05
    -0.138000000000000E+01     0.460256410256410E+01    -0.116899182662302E+05    -0.952193407852875E+05    -0.189019585660848E+04     0.900054957135426E+05     0.000000000000000E+00    -0.116471667114701E+05    -0.952620923400476E+05
    -0.184000000000000E+01     0.464615384615385E+01    -0.116833673049647E+05    -0.936033117089184E+05    -0.250853877698676E+04     0.884497454105448E+05     0.000000000000000E+00    -0.116066231472916E+05    -0.936800558665915E+05
    -0.230000000000000E+01     0.468974358974359E+01    -0.117064970146086E+05    -0.918014437733631E+05    -0.311286283524300E+04     0.867118421488695E+05     0.000000000000000E+00    -0.115856988466195E+05    -0.919222419413523E+05
    -0.276000000000000E+01     0.473333333333333E+01    -0.117582962480076E+05    -0.898146692606610E+05    -0.369818194840828E+04     0.847932456369300E+05     0.000000000000000E+00    -0.115834740471425E+05    -0.899894914615261E+05
    -0.322000000000000E+01     0.477692307692308E+01    -0.118372987158992E+05    -0.876444476275228E+05    -0.425947078578884E+04     0.826959890659215E+05     0.000000000000000E+00    -0.115987173870381E+05    -0.878830289563839E+05
    -0.368000000000000E+01     0.482051282051282E+01    -0.119415627213548E+05    -0.852927742717344E+05    -0.479168029451649E+04     0.804226948671045E+05     0.000000000000000E+00    -0.116298698790192E+05    -0.856044671140700E+05
    -0.414000000000000E+01     0.486410256410256E+01    -0.120686508942221E+05    -0.827621892985620E+05    -0.528975322509906E+04     0.779765914204967E+05     0.000000000000000E+00    -0.116750286293989E+05    -0.831558115633852E+05
    -0.460000000000000E+01     0.490769230769231E+01    -0.122156099255668E+05    -0.800557862871562E+05    -0.574863965697078E+04     0.753615310357817E+05     0.000000000000000E+00    -0.117319302880166E+05    -0.805394659247064E+05
    -0.506000000000000E+01     0.495128205128205E+01    -0.123789503021152E+05    -0.771772210569566E+05    -0.616331252404269E+04     0.725820097582329E+05     0.000000000000000E+00    -0.117979341566358E+05    -0.777582372024360E+05
    -0.552000000000000E+01     0.499487179487179E+01    -0.125546260406960E+05    -0.741307204340966E+05    -0.652878314025306E+04     0.696431899168885E+05     0.000000000000000E+00    -0.118700047855682E+05    -0.748153416892244E+05
    -0.598000000000000E+01     0.503846153846154E+01    -0.127380144226826E+05    -0.709210910178079E+05    -0.684011672511782E+04     0.665509269114349E+05     0.000000000000000E+00    -0.119446937222210E+05    -0.717144117182695E+05
    -0.644000000000000E+01     0.508205128205128E+01    -0.129238957284351E+05    -0.675537279468247E+05    -0.709244792928097E+04     0.633118026686171E+05     0.000000000000000E+00    -0.120181197893843E+05    -0.684595038858755E+05
    -0.690000000000000E+01     0.512564102564103E+01    -0.131064329717426E+05    -0.640346236657884E+05    -0.728099636006494E+04     0.599331697334735E+05     0.000000000000000E+00    -0.120859467695405E+05    -0.650551098679905E+05
    -0.736000000000000E+01     0.516923076923077E+01    -0.132791516342654E+05    -0.603703766916525E+05    -0.740108210702110E+04     0.564232125350574E+05     0.000000000000000E+00    -0.121433564699962E+05    -0.615061718559217E+05
    -0.782000000000000E+01     0.521282051282051E+01    -0.134349193999768E+05    -0.565682003800865E+05    -0.744814126748006E+04     0.527910367945005E+05     0.000000000000000E+00    -0.121850134737220E+05    -0.578181063063413E+05
    -0.828000000000000E+01     0.525641025641026E+01    -0.135659258896055E+05    -0.526359316918810E+05    -0.741774147210218E+04     0.490468058847166E+05     0.000000000000000E+00    -0.122050146711264E+05    -0.539968429103601E+05
    -0.874000000000000E+01     0.530000000000000E+01    -0.136636623950779E+05    -0.485820399593518E+05    -0.730559741042794E+04     0.452019573111575E+05     0.000000000000000E+00    -0.121968102163179E+05    -0.500488921381118E+05
    -0.920000000000000E+01     0.534358974358974E+01    -0.137189016139597E+05    -0.444156356527447E+05    -0.710758635642832E+04     0.412695598199405E+05     0.000000000000000E+00    -0.121530688599056E+05    -0.459814684067988E+05
     0.000000000000000E+00     0.472307692307692E+01    -0.112762917807215E+05    -0.933885813581077E+05     0.349674646893494E-09     0.882921570244050E+05     0.000000000000000E+00    -0.112762917807215E+05    -0.933885813581077E+05
    -0.440000000000000E+00     0.476410256410256E+01    -0.111952276406254E+05    -0.923953791582654E+05    -0.618483923599488E+03     0.873441439147332E+05     0.000000000000000E+00    -0.111905170561376E+05    -0.924000897427532E+05
    -0.880000000000000E+00     0.480512820512820E+01    -0.111427125739523E+05    -0.912300288146259E+05    -0.123765504985173E+04     0.862271626687072E+05     0.000000000000000E+00    -0.111235906399689E+05    -0.912491507486094E+05
    -0.132000000000000E+01     0.484615384615385E+01    -0.111187930446384E+05    -0.898919687436251E+05    -0.185316800281860E+04     0.849411920182364E+05     0.000000000000000E+00    -0.110752206855740E+05    -0.899355411026894E+05
    -0.176000000000000E+01     0.488717948717949E+01    -0.111231677241454E+05    -0.883810640536359E+05    -0.246059915278158E+04     0.834866671327664E+05     0.000000000000000E+00    -0.110448790396238E+05    -0.884593527381576E+05
    -0.220000000000000E+01     0.492820512820513E+01    -0.111551715471344E+05    -0.866976134604455E+05    -0.305545914339041E+04     0.818644903046197E+05     0.000000000000000E+00    -0.110317891527397E+05    -0.868209958548401E+05
    -0.264000000000000E+01     0.496923076923077E+01    -0.112137597671386E+05    -0.848423562027304E+05    -0.363320541881193E+04     0.800760423501094E+05     0.000000000000000E+00    -0.110349135540525E+05    -0.850212024158165E+05
    -0.308000000000000E+01     0.501025641025641E+01    -0.112974920122372E+05    -0.828164789575346E+05    -0.418925475087906E+04     0.781231948225959E+05     0.000000000000000E+00    -0.110529408678131E+05    -0.830610301019587E+05
    -0.352000000000000E+01     0.505128205128205E+01    -0.114045163407282E+05    -0.806216227557448E+05    -0.471899576623966E+04     0.760083232134942E+05     0.000000000000000E+00    -0.110842723150262E+05    -0.809418667814468E+05
    -0.396000000000000E+01     0.509230769230769E+01    -0.115325532968021E+05    -0.782598898975666E+05    -0.521780147350549E+04     0.737343214366825E+05     0.000000000000000E+00    -0.111270075898248E+05    -0.786654356045439E+05
    -0.440000000000000E+01     0.513333333333333E+01    -0.116788799662152E+05    -0.757338508680023E+05    -0.568104179040112E+04     0.713046180718212E+05     0.000000000000000E+00    -0.111789299182644E+05    -0.762338009159532E+05
    -0.484000000000000E+01     0.517435897435897E+01    -0.118403140319628E+05    -0.730465512523261E+05    -0.610409607091283E+04     0.687231951162312E+05     0.000000000000000E+00    -0.112374899787385E+05    -0.736493753055503E+05
    -0.528000000000000E+01     0.521538461538461E+01    -0.120131978299525E+05    -0.702015186515610E+05    -0.648236563243753E+04     0.659946104173709E+05     0.000000000000000E+00    -0.112997881586079E+05    -0.709149283229056E+05
    -0.572000000000000E+01     0.525641025641026E+01    -0.121933824046778E+05    -0.672027695979550E+05    -0.681128628293171E+04     0.631240256180273E+05     0.000000000000000E+00    -0.113625542896375E+05    -0.680335977129953E+05
    -0.616000000000000E+01     0.529743589743590E+01    -0.123762115648912E+05    -0.640548164704581E+05    -0.708634084806033E+04     0.601172424951363E+05     0.000000000000000E+00    -0.114221234546774E+05    -0.650089045806719E+05
    -0.660000000000000E+01     0.533846153846154E+01    -0.125565059392774E+05    -0.607626744101980E+05    -0.730307169834570E+04     0.569807522717834E+05     0.000000000000000E+00    -0.114744055239778E+05    -0.618447748254976E+05
    -0.704000000000000E+01     0.537948717948718E+01    -0.127285470321270E+05    -0.573318682359570E+05    -0.745709327631649E+04     0.537218052943883E+05     0.000000000000000E+00    -0.115148444487818E+05    -0.585455708193022E+05
    -0.748000000000000E+01     0.542051282051282E+01    -0.128860612790098E+05    -0.537684393596480E+05    -0.754410462365657E+04     0.503485132423136E+05     0.000000000000000E+00    -0.115383603991255E+05    -0.551161402395322E+05
    -0.792000000000000E+01     0.546153846153846E+01    -0.130222041024476E+05    -0.500789527017918E+05    -0.755990190835396E+04     0.468700043809082E+05     0.000000000000000E+00    -0.115392623271414E+05    -0.515618944770979E+05
    -0.836000000000000E+01     0.550256410256410E+01    -0.131295439675882E+05    -0.462705036069922E+05    -0.750039095184973E+04     0.432966674309100E+05     0.000000000000000E+00    -0.115111077699531E+05    -0.478889398046272E+05
    -0.880000000000000E+01     0.554358974358974E+01    -0.132000464378784E+05    -0.423507247594138E+05    -0.736159975618694E+04     0.396405478395365E+05     0.000000000000000E+00    -0.114464645497310E+05    -0.441043066475611E+05
     0.000000000000000E+00     0.497435897435897E+01    -0.107231306112747E+05    -0.878350173951460E+05     0.337800275423680E-09     0.829946350503472E+05     0.000000000000000E+00    -0.107231306112747E+05    -0.878350173951460E+05
    -0.420000000000000E+00     0.501282051282051E+01    -0.106562258273376E+05    -0.869063768776927E+05    -0.605097596131290E+03     0.821052857150434E+05     0.000000000000000E+00    -0.106514242624780E+05    -0.869111784425522E+05
    -0.840000000000000E+00     0.505128205128205E+01    -0.106159289184372E+05    -0.858186393998223E+05    -0.121093182484374E+04     0.810610344564254E+05     0.000000000000000E+00    -0.105964352609301E+05    -0.858381330573295E+05
    -0.126000000000000E+01     0.508974358974359E+01    -0.106021435161545E+05    -0.845712817334563E+05    -0.181357060401945E+04     0.798619896440154E+05     0.000000000000000E+00    -0.105577052051036E+05    -0.846157200445073E+05
    -0.168000000000000E+01     0.512820512820513E+01    -0.106144700593163E+05    -0.831641411270606E+05    -0.240901190833537E+04     0.785086496709970E+05     0.000000000000000E+00    -0.105345668183881E+05    -0.832440443679889E+05
    -0.210000000000000E+01     0.516666666666667E+01    -0.106521934028314E+05    -0.815974206954292E+05    -0.299319377826066E+04     0.770019117230276E+05     0.000000000000000E+00    -0.105261339292820E+05    -0.817234801689786E+05
    -0.252000000000000E+01     0.520512820512820E+01    -0.107142704265263E+05    -0.798716948094668E+05    -0.356200432905434E+04     0.753430813639604E+05     0.000000000000000E+00    -0.105312908918918E+05    -0.800546743441013E+05
    -0.294000000000000E+01     0.524358974358974E+01    -0.107993176439807E+05    -0.779879144859725E+05    -0.411129175976289E+04     0.735338831173971E+05     0.000000000000000E+00    -0.105486813430301E+05    -0.782385507869232E+05
    -0.336000000000000E+01     0.528205128205128E+01    -0.109055988113637E+05    -0.759474127774233E+05    -0.463687436221793E+04     0.715764723219865E+05     0.000000000000000E+00    -0.105766961320854E+05    -0.762763154567016E+05
    -0.378000000000000E+01     0.532051282051282E+01    -0.110310125362690E+05    -0.737519101617573E+05    -0.513455053003388E+04     0.694734486833030E+05     0.000000000000000E+00    -0.106134601708047E+05    -0.741694625272216E+05
    -0.420000000000000E+01     0.535897435897436E+01    -0.111730798865510E+05    -0.714035199321571E+05    -0.560010876760557E+04     0.672278721595241E+05     0.000000000000000E+00    -0.106568178160754E+05    -0.719197820026327E+05
    -0.462000000000000E+01     0.539743589743590E+01    -0.113289319991605E+05    -0.689047535868329E+05    -0.602933769910593E+04     0.648432821390867E+05     0.000000000000000E+00    -0.107043161935403E+05    -0.695293693924531E+05
    -0.504000000000000E+01     0.543589743589744E+01    -0.114952976889802E+05    -0.662585262188058E+05    -0.641803607748362E+04     0.623237213555467E+05     0.000000000000000E+00    -0.107531855499409E+05    -0.670006383578452E+05
    -0.546000000000000E+01     0.547435897435897E+01    -0.116684910576608E+05    -0.634681619056921E+05    -0.676202279346065E+04     0.596737667353500E+05     0.000000000000000E+00    -0.108003152135531E+05    -0.643363377497997E+05
    -0.588000000000000E+01     0.551282051282051E+01    -0.118443991024563E+05    -0.605373990994849E+05    -0.705714688453009E+04     0.568985705507538E+05     0.000000000000000E+00    -0.108422229160593E+05    -0.615395752858819E+05
    -0.630000000000000E+01     0.555128205128205E+01    -0.120184693250601E+05    -0.574703960163393E+05    -0.729929754395366E+04     0.540039171308559E+05     0.000000000000000E+00    -0.108750138545131E+05    -0.586138514868863E+05
    -0.672000000000000E+01     0.558974358974359E+01    -0.121856973404406E+05    -0.542717360263541E+05    -0.748441412975939E+04     0.509963034564945E+05     0.000000000000000E+00    -0.108943235209719E+05    -0.555631098458228E+05
    -0.714000000000000E+01     0.562820512820513E+01    -0.123406144856770E+05    -0.509464330433564E+05    -0.760849617373932E+04     0.478830571099455E+05     0.000000000000000E+00    -0.108952341807240E+05    -0.523918133483094E+05
    -0.756000000000000E+01     0.566666666666667E+01    -0.124772754287949E+05    -0.474999369146843E+05    -0.766761339044705E+04     0.446725139051542E+05     0.000000000000000E+00    -0.108721473078662E+05    -0.491050650356130E+05
    -0.798000000000000E+01     0.570512820512821E+01    -0.125892457776022E+05    -0.439381388109703E+05    -0.765791568619549E+04     0.413742932373460E+05     0.000000000000000E+00    -0.108185799053886E+05    -0.457088046831838E+05
    -0.840000000000000E+01     0.574358974358974E+01    -0.126695896885246E+05    -0.402673766159244E+05    -0.757564316805445E+04     0.379997380395745E+05     0.000000000000000E+00    -0.107268240836184E+05    -0.422101422208306E+05
     0.000000000000000E+00     0.522564102564102E+01    -0.102272234159398E+05    -0.822904280590546E+05     0.322363671336095E-09     0.776833833981805E+05     0.000000000000000E+00    -0.102272234159398E+05    -0.822904280590546E+05
    -0.400000000000000E+00     0.526153846153846E+01    -0.101724724775570E+05    -0.814260230272608E+05    -0.590713690169713E+03     0.768532320213808E+05     0.000000000000000E+00    -0.101675756172347E+05    -0.814309198875832E+05
    -0.800000000000000E+00     0.529743589743590E+01    -0.101421585599399E+05    -0.804151998872162E+05    -0.118214233150620E+04     0.758819901343284E+05     0.000000000000000E+00    -0.101222780306486E+05    -0.804350804165075E+05
    -0.120000000000000E+01     0.533333333333333E+01    -0.101360808610468E+05    -0.792574766642563E+05    -0.177075048799996E+04     0.747698750966433E+05     0.000000000000000E+00    -0.100907475435600E+05    -0.793028099817431E+05
    -0.160000000000000E+01     0.536923076923077E+01    -0.101537774618094E+05    -0.779526731547679E+05    -0.235294141248292E+04     0.735174357062532E+05     0.000000000000000E+00    -0.100722174128959E+05    -0.780342332036814E+05
    -0.200000000000000E+01     0.540512820512820E+01    -0.101945158269753E+05    -0.765009150708409E+05    -0.292506495788111E+04     0.721255598604140E+05     0.000000000000000E+00    -0.100657285764339E+05    -0.766297023213824E+05
    -0.240000000000000E+01     0.544102564102564E+01    -0.102572833059518E+05    -0.749026381849227E+05    -0.348342548846772E+04     0.705954831915978E+05     0.000000000000000E+00    -0.100701202353590E+05    -0.750898012555156E+05
    -0.280000000000000E+01     0.547692307692308E+01    -0.103407776336487E+05    -0.731585924744705E+05    -0.402428979111607E+04     0.689287989385687E+05     0.000000000000000E+00    -0.100840195207596E+05    -0.734153505873596E+05
    -0.320000000000000E+01     0.551282051282051E+01    -0.104433974313216E+05    -0.712698462666038E+05    -0.454389498655268E+04     0.671274694315895E+05     0.000000000000000E+00    -0.101058299709212E+05    -0.716074137270041E+05
    -0.360000000000000E+01     0.554871794871795E+01    -0.105632327074148E+05    -0.692377903827589E+05    -0.503845644061029E+04     0.651938397417222E+05     0.000000000000000E+00    -0.101337184208141E+05    -0.696673046693596E+05
    -0.400000000000000E+01     0.558461538461538E+01    -0.106980553584048E+05    -0.670641422833410E+05    -0.550417567548085E+04     0.631306542936175E+05     0.000000000000000E+00    -0.101655997189259E+05    -0.675965979228199E+05
    -0.440000000000000E+01     0.562051282051282E+01    -0.108453096696433E+05    -0.647509502123771E+05    -0.593724828096855E+04     0.609410776096788E+05     0.000000000000000E+00    -0.101991184056224E+05    -0.653971414763980E+05
    -0.480000000000000E+01     0.565641025641026E+01    -0.110021028162003E+05    -0.623005973421694E+05    -0.633387182574285E+04     0.586287209054994E+05     0.000000000000000E+00    -0.102316260559734E+05    -0.630710741023963E+05
    -0.520000000000000E+01     0.569230769230769E+01    -0.111651953637073E+05    -0.597158059179487E+05    -0.669025376859152E+04     0.561976770963819E+05     0.000000000000000E+00    -0.102601523154860E+05    -0.606208489661701E+05
    -0.560000000000000E+01     0.572820512820513E+01    -0.113309917692005E+05    -0.569996414025265E+05    -0.700261936967362E+04     0.536525680747947E+05     0.000000000000000E+00    -0.102813665802761E+05    -0.580492665914510E+05
    -0.600000000000000E+01     0.576410256410256E+01    -0.114955308819638E+05    -0.541555166209492E+05    -0.726721960177256E+04     0.509986101694588E+05     0.000000000000000E+00    -0.102915255142817E+05    -0.553595219886313E+05
    -0.640000000000000E+01     0.580000000000000E+01    -0.116544764443721E+05    -0.511871959051501E+05    -0.748033906154908E+04     0.482417070004972E+05     0.000000000000000E+00    -0.102863986505004E+05    -0.525552736990219E+05
    -0.680000000000000E+01     0.583589743589744E+01    -0.118031075927346E+05    -0.480987992386030E+05    -0.763830388079433E+04     0.453885843915913E+05     0.000000000000000E+00    -0.102611592524900E+05    -0.496407475788475E+05
    -0.720000000000000E+01     0.587179487179487E+01    -0.119363093581374E+05    -0.448948064009752E+05    -0.773748963768283E+04     0.424469912099577E+05     0.000000000000000E+00    -0.102102186153751E+05    -0.466208971437375E+05
    -0.760000000000000E+01     0.590769230769231E+01    -0.120485631672873E+05    -0.415800611127806E+05    -0.777432926802553E+04     0.394260060166474E+05     0.000000000000000E+00    -0.101269654877394E+05    -0.435016587923286E+05
    -0.800000000000000E+01     0.594358974358974E+01    -0.121339373433546E+05    -0.381597751800329E+05    -0.774532097652282E+04     0.363365180948889E+05     0.000000000000000E+00    -0.100033409563021E+05    -0.402903715670855E+05
     0.000000000000000E+00     0.547692307692308E+01    -0.978404723356554E+04    -0.767550372265771E+05     0.303720331027561E-09     0.723608209619195E+05     0.000000000000000E+00    -0.978404723356554E+04    -0.767550372265771E+05
    -0.380000000000000E+00     0.551025641025641E+01    -0.973965660890026E+04    -0.759545135703467E+05    -0.575118960020689E+03     0.715902957666091E+05     0.000000000000000E+00    -0.973466170467054E+04    -0.759595084745764E+05
    -0.760000000000000E+00     0.554358974358974E+01    -0.971737253575849E+04    -0.750198665859625E+05    -0.115087704369050E+04     0.706921867980098E+05     0.000000000000000E+00    -0.969709602332209E+04    -0.750401430983989E+05
    -0.114000000000000E+01     0.557692307692308E+01    -0.971692328183957E+04    -0.739506579058820E+05    -0.172411837438418E+04     0.696668018913714E+05     0.000000000000000E+00    -0.967067895790637E+04    -0.739969022298152E+05
    -0.152000000000000E+01     0.561025641025641E+01    -0.973781511339795E+04    -0.727466992680077E+05    -0.229163437315081E+04     0.685147294695927E+05     0.000000000000000E+00    -0.965457828416612E+04    -0.728299360972396E+05
    -0.190000000000000E+01     0.564358974358974E+01    -0.977932512346904E+04    -0.714080556553734E+05    -0.285016993794372E+04     0.672368457446378E+05     0.000000000000000E+00    -0.964779283548560E+04    -0.715395879433568E+05
    -0.228000000000000E+01     0.567692307692308E+01    -0.984049406009500E+04    -0.699350484358295E+05    -0.339642962285059E+04     0.658343230913198E+05     0.000000000000000E+00    -0.964914362388671E+04    -0.701263988720378E+05
    -0.266000000000000E+01     0.571025641025641E+01    -0.992011915455055E+04    -0.683282585017280E+05    -0.392708381732367E+04     0.643086399318492E+05     0.000000000000000E+00    -0.965726376276962E+04    -0.685911138935089E+05
    -0.304000000000000E+01     0.574358974358974E+01    -0.100167469495687E+05    -0.665885294096083E+05    -0.443877492540990E+04     0.626615926071254E+05     0.000000000000000E+00    -0.967058681202215E+04    -0.669346895471549E+05
    -0.342000000000000E+01     0.577692307692308E+01    -0.101286661275667E+05    -0.647169705198829E+05    -0.492812354498110E+04     0.608953099067196E+05     0.000000000000000E+00    -0.968733300650639E+04    -0.651583036409432E+05
    -0.380000000000000E+01     0.581025641025641E+01    -0.102539003388717E+05    -0.627149601365219E+05    -0.539173464696413E+04     0.590122712120001E+05     0.000000000000000E+00    -0.970549259490686E+04    -0.632633678804867E+05
    -0.418000000000000E+01     0.584358974358974E+01    -0.103902010299465E+05    -0.605841486467391E+05    -0.582620375457104E+04     0.570153296192737E+05     0.000000000000000E+00    -0.972280516763074E+04    -0.612515445090548E+05
    -0.456000000000000E+01     0.587692307692308E+01    -0.105350402716156E+05    -0.583264616606775E+05    -0.622812312252925E+04     0.549077420203300E+05     0.000000000000000E+00    -0.973673332571175E+04    -0.591247686065813E+05
    -0.494000000000000E+01     0.591025641025641E+01    -0.106856035872907E+05    -0.559441031510943E+05    -0.659408791631170E+04     0.526932090352263E+05     0.000000000000000E+00    -0.974442823217489E+04    -0.568852785062101E+05
    -0.532000000000000E+01     0.594358974358974E+01    -0.108387827811967E+05    -0.534395585930468E+05    -0.692070239136705E+04     0.503759290937070E+05     0.000000000000000E+00    -0.974268331671585E+04    -0.545356580575276E+05
    -0.570000000000000E+01     0.597692307692308E+01    -0.109911687665975E+05    -0.508155981035771E+05    -0.720458607234979E+04     0.479606731413330E+05     0.000000000000000E+00    -0.972787037216681E+04    -0.520788964980078E+05
    -0.608000000000000E+01     0.601025641025641E+01    -0.111390443940216E+05    -0.480752795813983E+05    -0.744237993235042E+04     0.454528899026426E+05     0.000000000000000E+00    -0.969584895938980E+04    -0.495184750160301E+05
    -0.646000000000000E+01     0.604358974358974E+01    -0.112783772794882E+05    -0.452219518465795E+05    -0.763075257212565E+04     0.428588572302536E+05     0.000000000000000E+00    -0.964183448172555E+04    -0.468584946443422E+05
    -0.684000000000000E+01     0.607692307692308E+01    -0.114048126327327E+05    -0.422592577802312E+05    -0.776640639932852E+04     0.401859043374723E+05     0.000000000000000E+00    -0.956020077294448E+04    -0.441038696400194E+05
    -0.722000000000000E+01     0.611025641025641E+01    -0.115136660854325E+05    -0.391911374641910E+05    -0.784608380773861E+04     0.374427454328225E+05     0.000000000000000E+00    -0.944417633642436E+04    -0.412606272131992E+05
    -0.760000000000000E+01     0.614358974358974E+01    -0.115999165194334E+05    -0.360218313207087E+05    -0.786657335649214E+04     0.346399926079279E+05     0.000000000000000E+00    -0.928536336060155E+04    -0.383363844795405E+05
     0.000000000000000E+00     0.572820512820513E+01    -0.938945219487729E+04    -0.712289627985002E+05     0.282260752664730E-09     0.670292921996257E+05     0.000000000000000E+00    -0.938945219487729E+04    -0.712289627985002E+05
    -0.360000000000000E+00     0.575897435897436E+01    -0.935385666909891E+04    -0.704919417543310E+05    -0.558124710000609E+03     0.663187113638474E+05     0.000000000000000E+00    -0.934876201760622E+04    -0.704970364058237E+05
    -0.720000000000000E+00     0.578974358974359E+01    -0.933794283598068E+04    -0.696326957078400E+05    -0.111677437157985E+04     0.654937013071080E+05     0.000000000000000E+00    -0.931726512573339E+04    -0.696533734180873E+05
    -0.108000000000000E+01     0.582051282051282E+01    -0.934139676773910E+04    -0.686508315899714E+05    -0.167315489399149E+04     0.645546439626743E+05     0.000000000000000E+00    -0.929423356444897E+04    -0.686979947932615E+05
    -0.144000000000000E+01     0.585128205128205E+01    -0.936371837823896E+04    -0.675461613327334E+05    -0.222442779333337E+04     0.635021585257310E+05     0.000000000000000E+00    -0.927879812896580E+04    -0.676310815820066E+05
    -0.180000000000000E+01     0.588205128205128E+01    -0.940421610065275E+04    -0.663187042077363E+05    -0.276771495571930E+04     0.623371086962214E+05     0.000000000000000E+00    -0.926994069126722E+04    -0.664529796171219E+05
    -0.216000000000000E+01     0.591282051282051E+01    -0.946200156511990E+04    -0.649686891647316E+05    -0.330010340045129E+04     0.610606113153347E+05     0.000000000000000E+00    -0.926648537880302E+04    -0.651642053510485E+05
    -0.252000000000000E+01     0.594358974358974E+01    -0.953598427640613E+04    -0.634965571701502E+05    -0.381865004319174E+04     0.596740468064522E+05     0.000000000000000E+00    -0.926708826017232E+04    -0.637654531863840E+05
    -0.288000000000000E+01     0.597435897435897E+01    -0.962486629156280E+04    -0.619029635456408E+05    -0.432038645913565E+04     0.581790719860154E+05     0.000000000000000E+00    -0.927022506076976E+04    -0.622576047764338E+05
    -0.324000000000000E+01     0.600512820512821E+01    -0.972713689758616E+04    -0.601887803066090E+05    -0.480232364618283E+04     0.565776360277501E+05     0.000000000000000E+00    -0.927417624264881E+04    -0.606417409615464E+05
    -0.360000000000000E+01     0.603589743589744E+01    -0.984106728907674E+04    -0.583550985007554E+05    -0.526145678811009E+04     0.548720006744224E+05     0.000000000000000E+00    -0.927700850972713E+04    -0.589191572801050E+05
    -0.396000000000000E+01     0.606666666666667E+01    -0.996470524589862E+04    -0.564032305466142E+05    -0.569477001774345E+04     0.530647662397909E+05     0.000000000000000E+00    -0.927655139883265E+04    -0.570913843936802E+05
    -0.432000000000000E+01     0.609743589743590E+01    -0.100958698108388E+05    -0.543347125720922E+05    -0.609924118013034E+04     0.511589055992433E+05     0.000000000000000E+00    -0.927036702102807E+04    -0.551602153619029E+05
    -0.468000000000000E+01     0.612820512820513E+01    -0.102321459672664E+05    -0.521513067530066E+05    -0.647184659571182E+04     0.491578093402917E+05     0.000000000000000E+00    -0.925571011735417E+04    -0.531277426029189E+05
    -0.504000000000000E+01     0.615897435897436E+01    -0.103708793167923E+05    -0.498550036516242E+05    -0.680956582349477E+04     0.470653467087116E+05     0.000000000000000E+00    -0.922947421158740E+04    -0.509964087568291E+05
    -0.540000000000000E+01     0.618974358974359E+01    -0.105091707569278E+05    -0.474480245551998E+05    -0.710938642422409E+04     0.448859492274190E+05     0.000000000000000E+00    -0.918811748726877E+04    -0.487690778248589E+05
    -0.576000000000000E+01     0.622051282051282E+01    -0.106438711587449E+05    -0.449328238145143E+05    -0.736830872355492E+04     0.426247273545147E+05     0.000000000000000E+00    -0.912755859647238E+04    -0.464491363767868E+05
    -0.612000000000000E+01     0.625128205128205E+01    -0.107715760445346E+05    -0.423120911824139E+05    -0.758335057522484E+04     0.402876360783025E+05     0.000000000000000E+00    -0.904302709024360E+04    -0.440406401367050E+05
    -0.648000000000000E+01     0.628205128205128E+01    -0.108886202654671E+05    -0.395887541523486E+05    -0.775155212422606E+04     0.378817142811220E+05     0.000000000000000E+00    -0.892884411904880E+04    -0.415485302987670E+05
    -0.684000000000000E+01     0.631282051282051E+01    -0.109910726792505E+05    -0.367659802969099E+05    -0.786998056997763E+04     0.354154374077404E+05     0.000000000000000E+00    -0.877809404902256E+04    -0.389789589271378E+05
    -0.720000000000000E+01     0.634358974358974E+01    -0.110747308277904E+05    -0.338471796063707E+05    -0.793573492949768E+04     0.328992476115677E+05     0.000000000000000E+00    -0.858212260354580E+04    -0.363397878306153E+05
     0.000000000000000E+00     0.597948717948718E+01    -0.903989940766740E+04    -0.657122112304424E+05     0.258408344457742E-09     0.616910261441357E+05     0.000000000000000E+00    -0.903989940766740E+04    -0.657122112304424E+05
    -0.340000000000000E+00     0.600769230769231E+01    -0.901176619300660E+04    -0.650382927929685E+05    -0.539568893280204E+03     0.610406010362821E+05     0.000000000000000E+00    -0.900657030436236E+04    -0.650434886816127E+05
    -0.680000000000000E+00     0.603589743589744E+01    -0.900085567645079E+04    -0.642536379636489E+05    -0.107952474689795E+04     0.602885046547991E+05     0.000000000000000E+00    -0.897977204750880E+04    -0.642747215925909E+05
    -0.102000000000000E+01     0.606410256410256E+01    -0.900683585905977E+04    -0.633578999113443E+05    -0.161741660819696E+04     0.594351787912274E+05     0.000000000000000E+00    -0.895874620497081E+04    -0.634059895654333E+05
    -0.136000000000000E+01     0.609230769230769E+01    -0.902922095481495E+04    -0.623508977786289E+05    -0.215075692706869E+04     0.584812663863872E+05     0.000000000000000E+00    -0.894260976521509E+04    -0.624375089682288E+05
    -0.170000000000000E+01     0.612051282051282E+01    -0.906736751711323E+04    -0.612326183905061E+05    -0.267702517397173E+04     0.574276191828646E+05     0.000000000000000E+00    -0.893034739073840E+04    -0.613696385168810E+05
    -0.204000000000000E+01     0.614871794871795E+01    -0.912047056526067E+04    -0.600032179631236E+05    -0.319367145795128E+04     0.562753070018487E+05     0.000000000000000E+00    -0.892080229881924E+04    -0.602028862295651E+05
    -0.238000000000000E+01     0.617692307692308E+01    -0.918755971096643E+04    -0.586630238124878E+05    -0.369812014465881E+04     0.550256291193204E+05     0.000000000000000E+00    -0.891266535785734E+04    -0.589379181655969E+05
    -0.272000000000000E+01     0.620512820512821E+01    -0.926749528483647E+04    -0.572125360631791E+05    -0.418777347437156E+04     0.536801283852222E+05     0.000000000000000E+00    -0.890446183847972E+04    -0.575755695095359E+05
    -0.306000000000000E+01     0.623333333333333E+01    -0.935896446286740E+04    -0.556524293570672E+05    -0.466001518001213E+04     0.522406089643810E+05     0.000000000000000E+00    -0.889453504834832E+04    -0.561168587715862E+05
    -0.340000000000000E+01     0.626153846153846E+01    -0.946047739294027E+04    -0.539835545620258E+05    -0.511221410516806E+04     0.507091589094139E+05     0.000000000000000E+00    -0.888102577985444E+04    -0.545630061751117E+05
    -0.374000000000000E+01     0.628974358974359E+01    -0.957036332131439E+04    -0.522069404806478E+05    -0.554172782211141E+04     0.490881792483783E+05     0.000000000000000E+00    -0.886184606762632E+04    -0.529154577343359E+05
    -0.408000000000000E+01     0.631794871794872E+01    -0.968676671912109E+04    -0.503237955589602E+05    -0.594590624981828E+04     0.473804219517428E+05     0.000000000000000E+00    -0.883464512204515E+04    -0.511759171560362E+05
    -0.442000000000000E+01     0.634615384615385E+01    -0.980764340885757E+04    -0.483355095951392E+05    -0.632209527198844E+04     0.455890401395648E+05     0.000000000000000E+00    -0.879676437351975E+04    -0.493463886304770E+05
    -0.476000000000000E+01     0.637435897435897E+01    -0.993075669088068E+04    -0.462436554482250E+05    -0.666764035506485E+04     0.437176553651708E+05     0.000000000000000E+00    -0.874517717016449E+04    -0.474292349689412E+05
    -0.510000000000000E+01     0.640256410256410E+01    -0.100536734699007E+05    -0.440499907468374E+05    -0.697989016625327E+04     0.417704490269601E+05     0.000000000000000E+00    -0.867640656686131E+04    -0.454272576498768E+05
    -0.544000000000000E+01     0.643076923076923E+01    -0.101737603814752E+05    -0.417564595978902E+05    -0.725620019154179E+04     0.397522883338987E+05     0.000000000000000E+00    -0.858641142884777E+04    -0.433438085505177E+05
    -0.578000000000000E+01     0.645897435897436E+01    -0.102881799185028E+05    -0.393651942953065E+05    -0.749393635372045E+04     0.376689024624639E+05     0.000000000000000E+00    -0.847042612400194E+04    -0.411829480898074E+05
    -0.612000000000000E+01     0.648717948717949E+01    -0.103938865577169E+05    -0.368785170287337E+05    -0.769047863040074E+04     0.355271327057750E+05     0.000000000000000E+00    -0.832273143666576E+04    -0.389496721497848E+05
    -0.646000000000000E+01     0.651538461538462E+01    -0.104876228861797E+05    -0.342989415922583E+05    -0.784322467203523E+04     0.333352933556197E+05     0.000000000000000E+00    -0.813632260938792E+04    -0.366502418690501E+05
    -0.680000000000000E+01     0.654358974358974E+01    -0.105659157277758E+05    -0.316291750931216E+05    -0.794959341993712E+04     0.311037007491349E+05     0.000000000000000E+00    -0.790242285265245E+04    -0.342926679682450E+05
     0.000000000000000E+00     0.623076923076923E+01    -0.873269884198504E+04    -0.602046720636419E+05     0.232617332933864E-09     0.563481436903046E+05     0.000000000000000E+00    -0.873269884198504E+04    -0.602046720636419E+05
    -0.320000000000000E+00     0.625641025641026E+01    -0.871091945960547E+04    -0.595934385487577E+05    -0.519318210728447E+03     0.557579901591610E+05     0.000000000000000E+00    -0.870561973542229E+04    -0.595987382729408E+05
    -0.640000000000000E+00     0.628205128205128E+01    -0.870392477173694E+04    -0.588825331596111E+05    -0.103887470811775E+04     0.550784863691051E+05     0.000000000000000E+00    -0.868242560148284E+04    -0.589040323298652E+05
    -0.960000000000000E+00     0.630769230769231E+01    -0.871138441164965E+04    -0.580716554294020E+05    -0.155654202829155E+04     0.543101218749310E+05     0.000000000000000E+00    -0.866234864807254E+04    -0.581206911929791E+05
    -0.128000000000000E+01     0.633333333333333E+01    -0.873284302787601E+04    -0.571606374281365E+05    -0.207016323541467E+04     0.534535580852288E+05     0.000000000000000E+00    -0.864451001265898E+04    -0.572489704433535E+05
    -0.160000000000000E+01     0.635897435897436E+01    -0.876771752749351E+04    -0.561494449839758E+05    -0.257755462487219E+04     0.525096365749946E+05     0.000000000000000E+00    -0.862791168825729E+04    -0.562892508232120E+05
    -0.192000000000000E+01     0.638461538461538E+01    -0.881529431940744E+04    -0.550381789045841E+05    -0.307650842644870E+04     0.514793892496473E+05     0.000000000000000E+00    -0.861142685763801E+04    -0.552420463663536E+05
    -0.224000000000000E+01     0.641025641025641E+01    -0.887472655763371E+04    -0.538270761984768E+05    -0.356479550750758E+04     0.503640508887246E+05     0.000000000000000E+00    -0.859378816990651E+04    -0.541080145862040E+05
    -0.256000000000000E+01     0.643589743589744E+01    -0.894503138458162E+04    -0.525165112963680E+05    -0.404016807617029E+04     0.491650747757905E+05     0.000000000000000E+00    -0.857357333374330E+04    -0.528879693472063E+05
    -0.288000000000000E+01     0.646153846153846E+01    -0.902508717433664E+04    -0.511069972725190E+05    -0.450036238449563E+04     0.478841523668313E+05     0.000000000000000E+00    -0.854918717977288E+04    -0.515828972670827E+05
    -0.320000000000000E+01     0.648717948717949E+01    -0.911363077594321E+04    -0.495991870660865E+05    -0.494310143165907E+04     0.465232382914240E+05     0.000000000000000E+00    -0.851883903404723E+04    -0.501939788079825E+05
    -0.352000000000000E+01     0.651282051282051E+01    -0.920925475668754E+04    -0.479938747024703E+05    -0.536609766713197E+04     0.450845824617906E+05     0.000000000000000E+00    -0.848051380628216E+04    -0.487226156528757E+05
    -0.384000000000000E+01     0.653846153846154E+01    -0.931040464538035E+04    -0.462919965146614E+05    -0.576705569386087E+04     0.435707717479091E+05     0.000000000000000E+00    -0.843193457243526E+04    -0.471704665876065E+05
    -0.416000000000000E+01     0.656410256410256E+01    -0.941537617563967E+04    -0.444946323645905E+05    -0.614367497144680E+04     0.419847846575852E+05     0.000000000000000E+00    -0.837051353597622E+04    -0.455394950042540E+05
    -0.448000000000000E+01     0.658974358974359E+01    -0.952231252917365E+04    -0.426030068644754E+05    -0.649365251932455E+04     0.403300638838686E+05     0.000000000000000E+00    -0.829328695977648E+04    -0.438320324338726E+05
    -0.480000000000000E+01     0.661538461538461E+01    -0.962920157906334E+04    -0.406184905981694E+05    -0.681468561994190E+04     0.386106136705010E+05     0.000000000000000E+00    -0.819682778721240E+04    -0.420508643900204E+05
    -0.512000000000000E+01     0.664102564102564E+01    -0.973387313304544E+04    -0.385426013425095E+05    -0.710447452193900E+04     0.368311320411272E+05     0.000000000000000E+00    -0.807712695565273E+04    -0.401993475199022E+05
    -0.544000000000000E+01     0.666666666666667E+01    -0.983399617679511E+04    -0.363770052886641E+05    -0.736072514332754E+04     0.349971925667129E+05     0.000000000000000E+00    -0.792943049653854E+04    -0.382815709689207E+05
    -0.576000000000000E+01     0.669230769230769E+01    -0.992707611720876E+04    -0.341235182634816E+05    -0.758115177467009E+04     0.331154973149766E+05     0.000000000000000E+00    -0.774801399762726E+04    -0.363025803830631E+05
    -0.608000000000000E+01     0.671794871794872E+01    -0.100104520256868E+05    -0.317841069508376E+05    -0.776347978225938E+04     0.311942331465104E+05     0.000000000000000E+00    -0.752586854814690E+04    -0.342686904283775E+05
    -0.640000000000000E+01     0.674358974358974E+01    -0.100812938814166E+05    -0.293608901129838E+05    -0.790544831129756E+04     0.292435793245119E+05     0.000000000000000E+00    -0.725426318167286E+04    -0.321879208127275E+05
     0.000000000000000E+00     0.648205128205128E+01    -0.846624721532620E+04    -0.547061124557449E+05     0.205370671211145E-09     0.510027510012142E+05     0.000000000000000E+00    -0.846624721532619E+04    -0.547061124557449E+05
    -0.300000000000000E+00     0.650512820512821E+01    -0.844991714901283E+04    -0.541571322153102E+05    -0.497270209756439E+03     0.504729097868232E+05     0.000000000000000E+00    -0.844450775359038E+04    -0.541625416107326E+05
    -0.600000000000000E+00     0.652820512820513E+01    -0.844600460809834E+04    -0.535191047937674E+05    -0.994630985670094E+03     0.498655676639682E+05     0.000000000000000E+00    -0.842406670008283E+04    -0.535410427017829E+05
    -0.900000000000000E+00     0.655128205128205E+01    -0.845419636131642E+04    -0.527917753695275E+05    -0.149025763484243E+04     0.491812520275814E+05     0.000000000000000E+00    -0.840416285664074E+04    -0.528418088742032E+05
    -0.120000000000000E+01     0.657435897435897E+01    -0.847407942038180E+04    -0.519749933254848E+05    -0.198230234242499E+04     0.484206391905715E+05     0.000000000000000E+00    -0.838393426993304E+04    -0.520651384759336E+05
    -0.150000000000000E+01     0.659743589743590E+01    -0.850513912830248E+04    -0.510687131000047E+05    -0.246889615391342E+04     0.475845635045641E+05     0.000000000000000E+00    -0.836240965450041E+04    -0.512114425738068E+05
    -0.180000000000000E+01     0.662051282051282E+01    -0.854675724769202E+04    -0.500729950379122E+05    -0.294815095744171E+04     0.466740285433712E+05     0.000000000000000E+00    -0.833849802117305E+04    -0.502812542644312E+05
    -0.210000000000000E+01     0.664358974358974E+01    -0.859821004908185E+04    -0.489880062414791E+05    -0.341816146607643E+04     0.456902209169300E+05     0.000000000000000E+00    -0.831097600714563E+04    -0.492752402834154E+05
    -0.240000000000000E+01     0.666666666666667E+01    -0.865866639923349E+04    -0.478140214214119E+05    -0.387700720011101E+04     0.446345274658058E+05     0.000000000000000E+00    -0.827847224128141E+04    -0.481942155793639E+05
    -0.270000000000000E+01     0.668974358974359E+01    -0.872718584945082E+04    -0.465514237478393E+05    -0.432275446935993E+04     0.435085568343163E+05     0.000000000000000E+00    -0.823944785714049E+04    -0.470391617401496E+05
    -0.300000000000000E+01     0.671282051282051E+01    -0.880271672389241E+04    -0.452007057013003E+05    -0.475345835545298E+04     0.423141667603081E+05     0.000000000000000E+00    -0.819217196420161E+04    -0.458112504609911E+05
    -0.330000000000000E+01     0.673589743589744E+01    -0.888409420788375E+04    -0.437624699237322E+05    -0.516716469412950E+04     0.410534988895804E+05     0.000000000000000E+00    -0.813469047326761E+04    -0.445118736583484E+05
    -0.360000000000000E+01     0.675897435897436E+01    -0.897003843622952E+04    -0.422374300694575E+05    -0.556191205753263E+04     0.397290235779378E+05     0.000000000000000E+00    -0.806478610150420E+04    -0.431426824041828E+05
    -0.390000000000000E+01     0.678205128205128E+01    -0.905915258152586E+04    -0.406264116561725E+05    -0.593573373650355E+04     0.383435980639663E+05     0.000000000000000E+00    -0.797992659666281E+04    -0.417056376410355E+05
    -0.420000000000000E+01     0.680512820512821E+01    -0.914992094247268E+04    -0.389303529159343E+05    -0.628665972287570E+04     0.369005426976761E+05     0.000000000000000E+00    -0.787719714082584E+04    -0.402030767175812E+05
    -0.450000000000000E+01     0.682820512820513E+01    -0.924070703218589E+04    -0.371503056461496E+05    -0.661271869176904E+04     0.354037417643137E+05     0.000000000000000E+00    -0.775321142569673E+04    -0.386378012526388E+05
    -0.480000000000000E+01     0.685128205128205E+01    -0.932975166650969E+04    -0.352874360605612E+05    -0.691193998388429E+04     0.338577780947970E+05     0.000000000000000E+00    -0.760399393303360E+04    -0.370131937940373E+05
    -0.510000000000000E+01     0.687435897435897E+01    -0.941517105232881E+04    -0.333430256402370E+05    -0.718235558779718E+04     0.322681144530290E+05     0.000000000000000E+00    -0.742482344270655E+04    -0.353333732498593E+05
    -0.540000000000000E+01     0.689743589743590E+01    -0.949495487588089E+04    -0.313184719845567E+05    -0.742200212225264E+04     0.306413401106371E+05     0.000000000000000E+00    -0.721002482091650E+04    -0.336034020395211E+05
    -0.570000000000000E+01     0.692051282051282E+01    -0.956696439106860E+04    -0.292152896622001E+05    -0.762892281845912E+04     0.289855086542090E+05     0.000000000000000E+00    -0.695269324821785E+04    -0.318295608050508E+05
    -0.600000000000000E+01     0.694358974358974E+01    -0.962893050777201E+04    -0.270351110621348E+05    -0.780116950238276E+04     0.273106035083993E+05     0.000000000000000E+00    -0.664433384622698E+04    -0.300197077236798E+05
     0.000000000000000E+00     0.673333333333333E+01    -0.824026587782361E+04    -0.492161717115947E+05     0.177177947272063E-09     0.456571921967420E+05     0.000000000000000E+00    -0.824026587782361E+04    -0.492161717115947E+05
    -0.280000000000000E+00     0.675384615384615E+01    -0.822865199948777E+04    -0.487290029997213E+05    -0.473355383161305E+03     0.451876602079055E+05     0.000000000000000E+00    -0.822312032596340E+04    -0.487345346732457E+05
    -0.560000000000000E+00     0.677435897435898E+01    -0.822720371645240E+04    -0.481629546523769E+05    -0.946664587152497E+03     0.446519782747558E+05     0.000000000000000E+00    -0.820477592146696E+04    -0.481853824473624E+05
    -0.840000000000000E+00     0.679487179487179E+01    -0.823563648825320E+04    -0.475178159244858E+05    -0.141838389705327E+04     0.440507039508840E+05     0.000000000000000E+00    -0.818448869524563E+04    -0.475689637174933E+05
    -0.112000000000000E+01     0.681538461538462E+01    -0.825358774544359E+04    -0.467934565657164E+05    -0.188695199112515E+04     0.433845266404050E+05     0.000000000000000E+00    -0.816142103024315E+04    -0.468856232809168E+05
    -0.140000000000000E+01     0.683589743589744E+01    -0.828061560372442E+04    -0.459898273958688E+05    -0.235079136382388E+04     0.426542775866654E+05     0.000000000000000E+00    -0.813463246860000E+04    -0.461358105309932E+05
    -0.168000000000000E+01     0.685641025641026E+01    -0.831619757807379E+04    -0.451069608802623E+05    -0.280830974881193E+04     0.418609421074131E+05     0.000000000000000E+00    -0.810306854897961E+04    -0.453200899093565E+05
    -0.196000000000000E+01     0.687692307692308E+01    -0.835972929687672E+04    -0.441449717051222E+05    -0.325790154197107E+04     0.410056746665816E+05     0.000000000000000E+00    -0.806554715320356E+04    -0.444391538487954E+05
    -0.224000000000000E+01     0.689743589743590E+01    -0.841052321605491E+04    -0.431040573529674E+05    -0.369794922441491E+04     0.400898175523594E+05     0.000000000000000E+00    -0.802074168582294E+04    -0.434938388831994E+05
    -0.252000000000000E+01     0.691794871794872E+01    -0.846780733319656E+04    -0.419844986779976E+05    -0.412682478550143E+04     0.391149241712096E+05     0.000000000000000E+00    -0.796716020514971E+04    -0.424851458060444E+05
    -0.280000000000000E+01     0.693846153846154E+01    -0.853072390168599E+04    -0.407866604814806E+05    -0.454289114584552E+04     0.380827882903557E+05     0.000000000000000E+00    -0.790311935377991E+04    -0.414142650293866E+05
    -0.308000000000000E+01     0.695897435897436E+01    -0.859832814483349E+04    -0.395109920871394E+05    -0.494450358033155E+04     0.369954809979654E+05     0.000000000000000E+00    -0.782671158086974E+04    -0.402826086511031E+05
    -0.336000000000000E+01     0.697948717948718E+01    -0.866958697000504E+04    -0.381580279165398E+05    -0.533001114112588E+04     0.358553977439544E+05     0.000000000000000E+00    -0.773576368364338E+04    -0.390918512029015E+05
    -0.364000000000000E+01     0.700000000000000E+01    -0.874337768275199E+04    -0.367283880644779E+05    -0.569775808068944E+04     0.346653186344782E+05     0.000000000000000E+00    -0.762778409638991E+04    -0.378439816508400E+05
    -0.392000000000000E+01     0.702051282051282E+01    -0.881848670094091E+04    -0.352227788743662E+05    -0.604608527479023E+04     0.334284862610243E+05     0.000000000000000E+00    -0.749989560096303E+04    -0.365413699743441E+05
    -0.420000000000000E+01     0.704102564102564E+01    -0.889360826888327E+04    -0.336419935136223E+05    -0.637333164551590E+04     0.321487068590276E+05     0.000000000000000E+00    -0.734874922387119E+04    -0.351868525586344E+05
    -0.448000000000000E+01     0.706153846153846E+01    -0.896734317146520E+04    -0.319869125490554E+05    -0.667783558428628E+04     0.308304826498872E+05     0.000000000000000E+00    -0.717041407836876E+04    -0.337838416421518E+05
    -0.476000000000000E+01     0.708205128205128E+01    -0.903819744827724E+04    -0.302585045222537E+05    -0.695793637486592E+04     0.294791859871609E+05     0.000000000000000E+00    -0.696023699321975E+04    -0.323364649773112E+05
    -0.504000000000000E+01     0.710256410256410E+01    -0.910458110774406E+04    -0.284578265249719E+05    -0.721197561637664E+04     0.281012895575951E+05     0.000000000000000E+00    -0.671266540708597E+04    -0.308497422256300E+05
    -0.532000000000000E+01     0.712307692307692E+01    -0.916480684125426E+04    -0.265860247745183E+05    -0.743829864631006E+04     0.267046714315798E+05     0.000000000000000E+00    -0.642102820656650E+04    -0.293298034092060E+05
    -0.560000000000000E+01     0.714358974358974E+01    -0.921708873729005E+04    -0.246443351891419E+05    -0.763525596354016E+04     0.252990189193641E+05     0.000000000000000E+00    -0.607727394108126E+04    -0.277841499853506E+05
     0.000000000000000E+00     0.698461538461538E+01    -0.805603869743686E+04    -0.437343558140192E+05     0.148573292237169E-09     0.403146124267197E+05     0.000000000000000E+00    -0.805603869743686E+04    -0.437343558140192E+05
    -0.260000000000000E+00     0.700256410256410E+01    -0.804853446443780E+04    -0.433085508049393E+05    -0.447539267970085E+03     0.399053879855837E+05     0.000000000000000E+00    -0.804285496792933E+04    -0.433142303014478E+05
    -0.520000000000000E+00     0.702051282051282E+01    -0.804909794534197E+04    -0.428135574063153E+05    -0.894914882537809E+03     0.394408516199457E+05     0.000000000000000E+00    -0.802607608182971E+04    -0.428365792698275E+05
    -0.780000000000000E+00     0.703846153846154E+01    -0.805748118146431E+04    -0.422492065558232E+05    -0.134084129212445E+04     0.389215857454821E+05     0.000000000000000E+00    -0.800498020357178E+04    -0.423017075337157E+05
    -0.104000000000000E+01     0.705641025641026E+01    -0.807337655826619E+04    -0.416153901237158E+05    -0.178401999948845E+04     0.383482929370844E+05     0.000000000000000E+00    -0.797875569584312E+04    -0.417100109861389E+05
    -0.130000000000000E+01     0.707435897435897E+01    -0.809641597142863E+04    -0.409120612881108E+05    -0.222314055848203E+04     0.377218067676472E+05     0.000000000000000E+00    -0.794649124885045E+04    -0.410619860106890E+05
    -0.156000000000000E+01     0.709230769230769E+01    -0.812616999292545E+04    -0.401392349102802E+05    -0.265688157080791E+04     0.370431050360735E+05     0.000000000000000E+00    -0.790716390793683E+04    -0.403582409952689E+05
    -0.182000000000000E+01     0.711025641025641E+01    -0.816214703709644E+04    -0.392969879099394E+05    -0.308391168277609E+04     0.363133259756617E+05     0.000000000000000E+00    -0.785962448964190E+04    -0.395995104573940E+05
    -0.208000000000000E+01     0.712820512820513E+01    -0.820379252672055E+04    -0.383854596405364E+05    -0.350289058206062E+04     0.355337882021130E+05     0.000000000000000E+00    -0.780257974132149E+04    -0.387866724259355E+05
    -0.234000000000000E+01     0.714615384615385E+01    -0.825048805908904E+04    -0.374048522645404E+05    -0.391246999445629E+04     0.347060153800065E+05     0.000000000000000E+00    -0.773457043003176E+04    -0.379207698935977E+05
    -0.260000000000000E+01     0.716410256410256E+01    -0.830155057207869E+04    -0.363554311287311E+05    -0.431129468063545E+04     0.338317668743687E+05     0.000000000000000E+00    -0.765394433628714E+04    -0.370030373645226E+05
    -0.286000000000000E+01     0.718205128205128E+01    -0.835623151022495E+04    -0.352375251394878E+05    -0.469800343290473E+04     0.329130760316068E+05     0.000000000000000E+00    -0.755882287296104E+04    -0.360349337767517E+05
    -0.312000000000000E+01     0.720000000000000E+01    -0.841371599079515E+04    -0.340515271380788E+05    -0.507123007196178E+04     0.319522982294660E+05     0.000000000000000E+00    -0.744705974967168E+04    -0.350181833792023E+05
    -0.338000000000000E+01     0.721794871794872E+01    -0.847312196986162E+04    -0.327978942759499E+05    -0.542960444365206E+04     0.309521714834576E+05     0.000000000000000E+00    -0.731618977134264E+04    -0.339548264744689E+05
    -0.364000000000000E+01     0.723589743589744E+01    -0.853349940837491E+04    -0.314771483900133E+05    -0.577175341572557E+04     0.299158932380761E+05     0.000000000000000E+00    -0.716336553451705E+04    -0.328472822638712E+05
    -0.390000000000000E+01     0.725384615384615E+01    -0.859382943823695E+04    -0.300898763779377E+05    -0.609630187459360E+04     0.288472180475340E+05     0.000000000000000E+00    -0.698527955401267E+04    -0.316984262621620E+05
    -0.416000000000000E+01     0.727179487179487E+01    -0.865302352837425E+04    -0.286367305734364E+05    -0.640187372208547E+04     0.277505821948137E+05     0.000000000000000E+00    -0.677806939386271E+04    -0.305116847079479E+05
    -0.442000000000000E+01     0.728974358974359E+01    -0.870992265081102E+04    -0.271184291215565E+05    -0.668709287220534E+04     0.266312629026157E+05     0.000000000000000E+00    -0.653720402622169E+04    -0.292911477461459E+05
    -0.468000000000000E+01     0.730769230769231E+01    -0.876329644674240E+04    -0.255357563539685E+05    -0.695058424788888E+04     0.254955815470469E+05     0.000000000000000E+00    -0.625735149256601E+04    -0.280417013081449E+05
    -0.494000000000000E+01     0.732564102564103E+01    -0.881184239260762E+04    -0.238895631642545E+05    -0.719097477776011E+04     0.243511618585758E+05     0.000000000000000E+00    -0.593223196111243E+04    -0.267691735957497E+05
    -0.520000000000000E+01     0.734358974358974E+01    -0.885418496616317E+04    -0.221807673831983E+05    -0.740689439288808E+04     0.232072546774171E+05     0.000000000000000E+00    -0.555446788014918E+04    -0.254804844692123E+05
     0.000000000000000E+00     0.723589743589744E+01    -0.791664994514222E+04    -0.382600319546199E+05     0.120113288638738E-09     0.349801674045133E+05     0.000000000000000E+00    -0.791664994514222E+04    -0.382600319546199E+05
    -0.240000000000000E+00     0.725128205128205E+01    -0.791271836942547E+04    -0.378951409121358E+05    -0.419824544283631E+03     0.346313152664030E+05     0.000000000000000E+00    -0.790684098896593E+04    -0.379010182925953E+05
    -0.480000000000000E+00     0.726666666666667E+01    -0.791494373390256E+04    -0.374702552074734E+05    -0.839393689382952E+03     0.342374815554421E+05     0.000000000000000E+00    -0.789112350236904E+04    -0.374940754390070E+05
    -0.720000000000000E+00     0.728205128205128E+01    -0.792311920319117E+04    -0.369852442952681E+05    -0.125765632461341E+04     0.337992708866715E+05     0.000000000000000E+00    -0.786879597621280E+04    -0.370395675222465E+05
    -0.960000000000000E+00     0.729743589743590E+01    -0.793699350809004E+04    -0.364400226832370E+05    -0.167355221641204E+04     0.333174012596114E+05     0.000000000000000E+00    -0.783906751211194E+04    -0.365379486792151E+05
    -0.120000000000000E+01     0.731282051282051E+01    -0.795627042837898E+04    -0.358345501663892E+05    -0.208601268683055E+04     0.327927156506245E+05     0.000000000000000E+00    -0.780104726753042E+04    -0.359897733272378E+05
    -0.144000000000000E+01     0.732820512820513E+01    -0.798060827561887E+04    -0.351688320612379E+05    -0.249396129202851E+04     0.322261960769042E+05     0.000000000000000E+00    -0.775373174211236E+04    -0.353957085947444E+05
    -0.168000000000000E+01     0.734358974358974E+01    -0.800961937595180E+04    -0.344429194400100E+05    -0.289631450076658E+04     0.316189806959308E+05     0.000000000000000E+00    -0.769598944944029E+04    -0.347565493665215E+05
    -0.192000000000000E+01     0.735897435897436E+01    -0.804286955290098E+04    -0.336569093648583E+05    -0.329198237289971E+04     0.309723846497868E+05     0.000000000000000E+00    -0.762654242359330E+04    -0.340732364941660E+05
    -0.216000000000000E+01     0.737435897435897E+01    -0.807987761017088E+04    -0.328109451220718E+05    -0.367986923787033E+04     0.302879255473538E+05     0.000000000000000E+00    -0.754394390395353E+04    -0.333468788282891E+05
    -0.240000000000000E+01     0.738974358974359E+01    -0.812011481444718E+04    -0.319052164562870E+05    -0.405887437320161E+04     0.295673547083568E+05     0.000000000000000E+00    -0.744655143066580E+04    -0.325787798400684E+05
    -0.264000000000000E+01     0.740512820512821E+01    -0.816300437819690E+04    -0.309399598046987E+05    -0.442789268299057E+04     0.288126955817065E+05     0.000000000000000E+00    -0.733249448046735E+04    -0.317704697024283E+05
    -0.288000000000000E+01     0.742051282051282E+01    -0.820792094246834E+04    -0.299154585312714E+05    -0.478581537640140E+04     0.280262911067923E+05     0.000000000000000E+00    -0.719963570481773E+04    -0.309237437689220E+05
    -0.312000000000000E+01     0.743589743589744E+01    -0.825419005969117E+04    -0.288320431609493E+05    -0.513153064615859E+04     0.272108622177624E+05     0.000000000000000E+00    -0.704552484783777E+04    -0.300407083728027E+05
    -0.336000000000000E+01     0.745128205128205E+01    -0.830108767647647E+04    -0.276900916138687E+05    -0.546392434704015E+04     0.263695801967179E+05     0.000000000000000E+00    -0.686734460423145E+04    -0.291238346861137E+05
    -0.360000000000000E+01     0.746666666666667E+01    -0.834783961641672E+04    -0.264900294395680E+05    -0.578188067437082E+04     0.255061561426435E+05     0.000000000000000E+00    -0.666184816469322E+04    -0.281760208912915E+05
    -0.384000000000000E+01     0.748205128205128E+01    -0.839362106288590E+04    -0.252323300511989E+05    -0.608428284251532E+04     0.246249513806566E+05     0.000000000000000E+00    -0.642528920222788E+04    -0.272006619118569E+05
    -0.408000000000000E+01     0.749743589743590E+01    -0.843755604183945E+04    -0.239175149597375E+05    -0.637001376337147E+04     0.237311130584041E+05     0.000000000000000E+00    -0.615334688671627E+04    -0.262017241148607E+05
    -0.432000000000000E+01     0.751282051282051E+01    -0.847871690461439E+04    -0.225461540081955E+05    -0.663795672486348E+04     0.228307391958740E+05     0.000000000000000E+00    -0.584105157678550E+04    -0.251838193360244E+05
    -0.456000000000000E+01     0.752820512820513E+01    -0.851612381072928E+04    -0.211188656058304E+05    -0.688699606943509E+04     0.219310765713094E+05     0.000000000000000E+00    -0.548272154290986E+04    -0.241522678736498E+05
    -0.480000000000000E+01     0.754358974358974E+01    -0.854874421068431E+04    -0.196363169623580E+05    -0.711601787254283E+04     0.210407521624543E+05     0.000000000000000E+00    -0.507192762755754E+04    -0.231131335454848E+05
     0.000000000000000E+00     0.748717948717949E+01    -0.782722218012274E+04    -0.327924230645596E+05     0.923748786944172E-10     0.296636955949723E+05     0.000000000000000E+00    -0.782722218012274E+04    -0.327924230645596E+05
    -0.220000000000000E+00     0.750000000000000E+01    -0.782632656917495E+04    -0.324879986630747E+05    -0.390253134120495E+03     0.293754429772429E+05     0.000000000000000E+00    -0.782015264103568E+04    -0.324941725912140E+05
    -0.440000000000000E+00     0.751282051282051E+01    -0.782989138482946E+04    -0.321322522851563E+05    -0.780189358037612E+03     0.290520718189880E+05     0.000000000000000E+00    -0.780487038434216E+04    -0.321572732856436E+05
    -0.660000000000000E+00     0.752564102564103E+01    -0.783775245333813E+04    -0.317250880461309E+05    -0.116896754579488E+04     0.286942092373705E+05     0.000000000000000E+00    -0.778068337428400E+04    -0.317821571251850E+05
    -0.880000000000000E+00     0.753846153846154E+01    -0.784971349013318E+04    -0.312664424659314E+05    -0.155574047769290E+04     0.283025934578631E+05     0.000000000000000E+00    -0.774680677568370E+04    -0.313693491803808E+05
    -0.110000000000000E+01     0.755128205128205E+01    -0.786554579664348E+04    -0.307562846073296E+05    -0.193965528679057E+04     0.278780859512867E+05     0.000000000000000E+00    -0.770235183452640E+04    -0.309194785694467E+05
    -0.132000000000000E+01     0.756410256410256E+01    -0.788498795711087E+04    -0.301946162141695E+05    -0.231985390540637E+04     0.274216860279186E+05     0.000000000000000E+00    -0.764631269983452E+04    -0.304332914714458E+05
    -0.154000000000000E+01     0.757692307692308E+01    -0.790774553540647E+04    -0.295814718495988E+05    -0.269547351161970E+04     0.269345483839522E+05     0.000000000000000E+00    -0.757755086434254E+04    -0.299116665206628E+05
    -0.176000000000000E+01     0.758974358974359E+01    -0.793349077184698E+04    -0.289169190343028E+05    -0.306564697577219E+04     0.264180042034727E+05     0.000000000000000E+00    -0.749477687890912E+04    -0.293556329272407E+05
    -0.198000000000000E+01     0.760256410256410E+01    -0.796186228001104E+04    -0.282010583847362E+05    -0.342950330696896E+04     0.258735865463773E+05     0.000000000000000E+00    -0.739652899549122E+04    -0.287663916692560E+05
    -0.220000000000000E+01     0.761538461538461E+01    -0.799246474355545E+04    -0.274340237513561E+05    -0.378616809958000E+04     0.253030608997252E+05     0.000000000000000E+00    -0.728114843492961E+04    -0.281453400599819E+05
    -0.242000000000000E+01     0.762820512820513E+01    -0.802486861303159E+04    -0.266159823568542E+05    -0.413476397974142E+04     0.247084619343409E+05     0.000000000000000E+00    -0.714675108838859E+04    -0.274940998814972E+05
    -0.264000000000000E+01     0.764102564102564E+01    -0.805860980270165E+04    -0.257471349343903E+05    -0.447441105185680E+04     0.240921376820546E+05     0.000000000000000E+00    -0.699119568926645E+04    -0.268145490478255E+05
    -0.286000000000000E+01     0.765384615384615E+01    -0.809318938735498E+04    -0.248277158658242E+05    -0.480422734509846E+04     0.234568025136913E+05     0.000000000000000E+00    -0.681204889861269E+04    -0.261088563545665E+05
    -0.308000000000000E+01     0.766666666666667E+01    -0.812807329912439E+04    -0.238579933199488E+05    -0.512332925990880E+04     0.228056004185904E+05     0.000000000000000E+00    -0.660654841524199E+04    -0.253795182038312E+05
    -0.330000000000000E+01     0.767948717948718E+01    -0.816269202430247E+04    -0.228382693907225E+05    -0.543083201450159E+04     0.221421800993377E+05     0.000000000000000E+00    -0.637156625237707E+04    -0.246293951626479E+05
    -0.352000000000000E+01     0.769230769230769E+01    -0.819644030015789E+04    -0.217688802355015E+05    -0.572585009136330E+04     0.214707831914996E+05     0.000000000000000E+00    -0.610357581511765E+04    -0.238617447205417E+05
    -0.374000000000000E+01     0.770512820512821E+01    -0.822867681175171E+04    -0.206501962132738E+05    -0.600749768375438E+04     0.207963463195250E+05     0.000000000000000E+00    -0.579862842062044E+04    -0.230802446044050E+05
    -0.396000000000000E+01     0.771794871794872E+01    -0.825872388875374E+04    -0.194826220228899E+05    -0.627488914221060E+04     0.201246164306941E+05     0.000000000000000E+00    -0.545234734567827E+04    -0.222889985659654E+05
    -0.418000000000000E+01     0.773076923076923E+01    -0.828586720225875E+04    -0.182665968412971E+05    -0.652713942104431E+04     0.194622765075676E+05     0.000000000000000E+00    -0.505995001264232E+04    -0.214925140309135E+05
    -0.440000000000000E+01     0.774358974358974E+01    -0.830935546160291E+04    -0.170025944617712E+05    -0.676336452484582E+04     0.188170748139612E+05     0.000000000000000E+00    -0.461631074143166E+04    -0.206956391819424E+05
     0.000000000000000E+00     0.773846153846154E+01    -0.779515413495820E+04    -0.273306023453517E+05     0.659532725808742E-10     0.243860614832374E+05     0.000000000000000E+00    -0.779515413495820E+04    -0.273306023453517E+05
    -0.200000000000000E+00     0.774871794871795E+01    -0.779667660457873E+04    -0.270862041424830E+05    -0.358908300260821E+03     0.241589464233045E+05     0.000000000000000E+00    -0.779000093027226E+04    -0.270928798167895E+05
    -0.400000000000000E+00     0.775897435897436E+01    -0.780119833734502E+04    -0.267986095424815E+05    -0.717470856852964E+03     0.239062166390734E+05     0.000000000000000E+00    -0.777414031935797E+04    -0.268256675604685E+05
    -0.600000000000000E+00     0.776923076923077E+01    -0.780859673389825E+04    -0.264677528847038E+05    -0.107503157302117E+04     0.236285250415308E+05     0.000000000000000E+00    -0.774686393445355E+04    -0.265294856841485E+05
    -0.800000000000000E+00     0.777948717948718E+01    -0.781872679753322E+04    -0.260935910603756E+05    -0.143093056200386E+04     0.233266373554521E+05     0.000000000000000E+00    -0.770736288678735E+04    -0.262049549711214E+05
    -0.100000000000000E+01     0.778974358974359E+01    -0.783142096920392E+04    -0.256761035883735E+05    -0.178450442917587E+04     0.230014443459879E+05     0.000000000000000E+00    -0.765471669683499E+04    -0.258528078607424E+05
    -0.120000000000000E+01     0.780000000000000E+01    -0.784648896252903E+04    -0.252152926910064E+05    -0.213508655419129E+04     0.226539763071951E+05     0.000000000000000E+00    -0.758788068848201E+04    -0.254739009650534E+05
    -0.140000000000000E+01     0.781025641025641E+01    -0.786371759879742E+04    -0.247111833697970E+05    -0.248200737312630E+04     0.222854201723446E+05     0.000000000000000E+00    -0.750567183037385E+04    -0.250692291382206E+05
    -0.160000000000000E+01     0.782051282051282E+01    -0.788287064197371E+04    -0.241638234812631E+05    -0.282459466062195E+04     0.218971396548474E+05     0.000000000000000E+00    -0.740675310950454E+04    -0.246399410137323E+05
    -0.180000000000000E+01     0.783076923076923E+01    -0.790368863370373E+04    -0.235732838126991E+05    -0.316217381202705E+04     0.214906988731290E+05     0.000000000000000E+00    -0.728961668427087E+04    -0.241873557621320E+05
    -0.200000000000000E+01     0.784102564102564E+01    -0.792588872832009E+04    -0.229396581579575E+05    -0.349406812554093E+04     0.210678899444095E+05     0.000000000000000E+00    -0.715256630880334E+04    -0.237129805774743E+05
    -0.220000000000000E+01     0.785128205128205E+01    -0.794916452784765E+04    -0.222630633932308E+05    -0.381959908435630E+04     0.206307650374570E+05     0.000000000000000E+00    -0.699369987179106E+04    -0.232185280492874E+05
    -0.240000000000000E+01     0.786153846153846E+01    -0.797318591700908E+04    -0.215436395528320E+05    -0.413808663880205E+04     0.201816733314281E+05     0.000000000000000E+00    -0.681089337346335E+04    -0.227059320963777E+05
    -0.260000000000000E+01     0.787179487179487E+01    -0.799759889823036E+04    -0.207815499049770E+05    -0.444884948848612E+04     0.197233032040800E+05     0.000000000000000E+00    -0.660178828442455E+04    -0.221773605187828E+05
    -0.280000000000000E+01     0.788205128205128E+01    -0.802202542664628E+04    -0.199769810275657E+05    -0.475120536443826E+04     0.192587297196860E+05     0.000000000000000E+00    -0.636378497208535E+04    -0.216352214821267E+05
    -0.300000000000000E+01     0.789230769230769E+01    -0.804606324510599E+04    -0.191301428839633E+05    -0.504447131125290E+04     0.187914670370084E+05     0.000000000000000E+00    -0.609404567416284E+04    -0.210821604549064E+05
    -0.320000000000000E+01     0.790256410256410E+01    -0.806928571917850E+04    -0.182412688987821E+05    -0.532796396923193E+04     0.183255246201324E+05     0.000000000000000E+00    -0.578951119071614E+04    -0.205210434272445E+05
    -0.340000000000000E+01     0.791282051282051E+01    -0.809124167215820E+04    -0.173106160336628E+05    -0.560099985652761E+04     0.178654649986598E+05     0.000000000000000E+00    -0.544693579410390E+04    -0.199549219117171E+05
    -0.360000000000000E+01     0.792307692307692E+01    -0.811145522007035E+04    -0.163384648630559E+05    -0.586289565128529E+04     0.174164591700129E+05     0.000000000000000E+00    -0.506294444996433E+04    -0.193869756331619E+05
    -0.380000000000000E+01     0.793333333333333E+01    -0.812942560667667E+04    -0.153251196500035E+05    -0.611296847378627E+04     0.169843334740521E+05     0.000000000000000E+00    -0.463411488634694E+04    -0.188204303703332E+05
    -0.400000000000000E+01     0.794358974358974E+01    -0.814462703848077E+04    -0.142709084219200E+05    -0.635053616859069E+04     0.165755989053688E+05     0.000000000000000E+00    -0.415708403811442E+04    -0.182584514222864E+05
     0.000000000000000E+00     0.798974358974359E+01    -0.783035860081504E+04    -0.218734877996477E+05     0.414598567074437E-10     0.191960082052728E+05     0.000000000000000E+00    -0.783035860081504E+04    -0.218734877996477E+05
    -0.180000000000000E+00     0.799743589743590E+01    -0.783350635970418E+04    -0.216886868604200E+05    -0.325916745090244E+03     0.190311102759754E+05     0.000000000000000E+00    -0.782584402622752E+04    -0.216963491938966E+05
    -0.360000000000000E+00     0.800512820512821E+01    -0.783844244016584E+04    -0.214682391527776E+05    -0.651491857390371E+03     0.188499931097765E+05     0.000000000000000E+00    -0.780737254888054E+04    -0.214993090440629E+05
    -0.540000000000000E+00     0.801282051282051E+01    -0.784508251337918E+04    -0.212121043616610E+05    -0.976229109082455E+03     0.186533388944806E+05     0.000000000000000E+00    -0.777416218488817E+04    -0.212830246901520E+05
    -0.720000000000000E+00     0.802051282051282E+01    -0.785332727328938E+04    -0.209202572510991E+05    -0.129963014686962E+04     0.184419467908143E+05     0.000000000000000E+00    -0.772532070705735E+04    -0.210482638173311E+05
    -0.900000000000000E+00     0.802820512820513E+01    -0.786306235576537E+04    -0.205926877016287E+05    -0.162119466160715E+04     0.182167440918849E+05     0.000000000000000E+00    -0.765983784150519E+04    -0.207959122158888E+05
    -0.108000000000000E+01     0.803589743589744E+01    -0.787415825775749E+04    -0.202294007477132E+05    -0.194042055793371E+04     0.179787990632760E+05     0.000000000000000E+00    -0.757657786973167E+04    -0.205269811357390E+05
    -0.126000000000000E+01     0.804358974358974E+01    -0.788647025645522E+04    -0.198304166151617E+05    -0.225680412390247E+04     0.177293355766435E+05     0.000000000000000E+00    -0.747427328546178E+04    -0.202426135861552E+05
    -0.144000000000000E+01     0.805128205128205E+01    -0.789983832844487E+04    -0.193957707585478E+05    -0.256984020061228E+04     0.174697496162838E+05     0.000000000000000E+00    -0.735152038011425E+04    -0.199440887068785E+05
    -0.162000000000000E+01     0.805897435897436E+01    -0.791408706886731E+04    -0.189255138986289E+05    -0.287902235183889E+04     0.172016276773788E+05     0.000000000000000E+00    -0.720677787722346E+04    -0.196328230902727E+05
    -0.180000000000000E+01     0.806666666666667E+01    -0.792902561057565E+04    -0.184197120597647E+05    -0.318384303366606E+04     0.169267669749888E+05     0.000000000000000E+00    -0.703836997542260E+04    -0.193103676949177E+05
    -0.198000000000000E+01     0.807435897435898E+01    -0.794444754329296E+04    -0.178784466073363E+05    -0.348379376411676E+04     0.166471972297038E+05     0.000000000000000E+00    -0.684449534137094E+04    -0.189783988092583E+05
    -0.216000000000000E+01     0.808205128205128E+01    -0.796013083276994E+04    -0.173018142851656E+05    -0.377836529278436E+04     0.163652035714842E+05     0.000000000000000E+00    -0.662324364390277E+04    -0.186387014740328E+05
    -0.234000000000000E+01     0.808974358974359E+01    -0.797583773994268E+04    -0.166899272529337E+05    -0.406704777046376E+04     0.160833497879941E+05     0.000000000000000E+00    -0.637262104434238E+04    -0.182931439485340E+05
    -0.252000000000000E+01     0.809743589743590E+01    -0.799131474009032E+04    -0.160429131236001E+05    -0.434933091878261E+04     0.158045007188201E+05     0.000000000000000E+00    -0.609058555737397E+04    -0.179436423063164E+05
    -0.270000000000000E+01     0.810512820512821E+01    -0.800629244199276E+04    -0.153609150008217E+05    -0.462470419983244E+04     0.155318420499260E+05     0.000000000000000E+00    -0.577509230298238E+04    -0.175921151398320E+05
    -0.288000000000000E+01     0.811282051282051E+01    -0.802048550708837E+04    -0.146440915163717E+05    -0.489265698579985E+04     0.152688950968902E+05     0.000000000000000E+00    -0.542414738932533E+04    -0.172404296341348E+05
    -0.306000000000000E+01     0.812051282051282E+01    -0.803359256863173E+04    -0.138926168675586E+05    -0.515267872859770E+04     0.150195234146065E+05     0.000000000000000E+00    -0.503586762869195E+04    -0.168903418074984E+05
    -0.324000000000000E+01     0.812820512820513E+01    -0.804529615085125E+04    -0.131066808546452E+05    -0.540425912949622E+04     0.147879273181316E+05     0.000000000000000E+00    -0.460854176911975E+04    -0.165434352363767E+05
    -0.342000000000000E+01     0.813589743589744E+01    -0.805526258810696E+04    -0.122864889182672E+05    -0.564688830875427E+04     0.145786217968019E+05     0.000000000000000E+00    -0.414068780953177E+04    -0.162010636968424E+05
    -0.360000000000000E+01     0.814358974358974E+01    -0.806314194404815E+04    -0.114322621768532E+05    -0.588005697525044E+04     0.143963930869232E+05     0.000000000000000E+00    -0.363110064970258E+04    -0.158643034711987E+05
     0.000000000000000E+00     0.824102564102564E+01    -0.794550031263643E+04    -0.164198367620258E+05     0.195201019897758E-10     0.142224539508330E+05     0.000000000000000E+00    -0.794550031263643E+04    -0.164198367620258E+05
    -0.160000000000000E+00     0.824615384615385E+01    -0.794919971880019E+04    -0.162942204346472E+05    -0.291450709443776E+03     0.141216222082729E+05     0.000000000000000E+00    -0.793903315840760E+04    -0.163043869950398E+05
    -0.320000000000000E+00     0.825128205128205E+01    -0.795373522446988E+04    -0.161398991559830E+05    -0.582594819630099E+03     0.140144216620423E+05     0.000000000000000E+00    -0.791248088287777E+04    -0.161811534975751E+05
    -0.480000000000000E+00     0.825641025641026E+01    -0.795905569122895E+04    -0.159568528034588E+05    -0.873070961567025E+03     0.139015465858896E+05     0.000000000000000E+00    -0.786485730663631E+04    -0.160510511880514E+05
    -0.640000000000000E+00     0.826153846153846E+01    -0.796510046220452E+04    -0.157450708476123E+05    -0.116251676464273E+04     0.137838073828608E+05     0.000000000000000E+00    -0.779510658753245E+04    -0.159150647222843E+05
    -0.800000000000000E+00     0.826666666666667E+01    -0.797179932856585E+04    -0.155045523677193E+05    -0.145056895242624E+04     0.136621374374877E+05     0.000000000000000E+00    -0.770212054959155E+04    -0.157742311466936E+05
    -0.960000000000000E+00     0.827179487179487E+01    -0.797907249602280E+04    -0.152353060674223E+05    -0.173686343846810E+04     0.135376002698198E+05     0.000000000000000E+00    -0.758476140610272E+04    -0.156296171573424E+05
    -0.112000000000000E+01     0.827692307692308E+01    -0.798683055132433E+04    -0.149373502903559E+05    -0.202103542210117E+04     0.134113967516317E+05     0.000000000000000E+00    -0.744188951316715E+04    -0.154822913285131E+05
    -0.128000000000000E+01     0.828205128205128E+01    -0.799497442875692E+04    -0.146107130357744E+05    -0.230271948424130E+04     0.132848720540552E+05     0.000000000000000E+00    -0.727239507830666E+04    -0.153332923862247E+05
    -0.144000000000000E+01     0.828717948717949E+01    -0.800339537664314E+04    -0.142554319741789E+05    -0.258154968318807E+04     0.131595218861259E+05     0.000000000000000E+00    -0.707523198596985E+04    -0.151835953648522E+05
    -0.160000000000000E+01     0.829230769230769E+01    -0.801197492384001E+04    -0.138715544629438E+05    -0.285715965042549E+04     0.130369974568890E+05     0.000000000000000E+00    -0.684945124476770E+04    -0.150340781420161E+05
    -0.176000000000000E+01     0.829743589743590E+01    -0.802058484623755E+04    -0.134591375619437E+05    -0.312918268642279E+04     0.129191084548931E+05     0.000000000000000E+00    -0.659423119221223E+04    -0.148854912159690E+05
    -0.192000000000000E+01     0.830256410256410E+01    -0.802908713325724E+04    -0.130182480491809E+05    -0.339725185643505E+04     0.128078231984347E+05     0.000000000000000E+00    -0.630890166209602E+04    -0.147384335203421E+05
    -0.208000000000000E+01     0.830769230769231E+01    -0.803733395435048E+04    -0.125489624364118E+05    -0.366100008630400E+04     0.127052649849557E+05     0.000000000000000E+00    -0.599295988299822E+04    -0.145933365077640E+05
    -0.224000000000000E+01     0.831282051282051E+01    -0.804516762549707E+04    -0.120513669847739E+05    -0.392006025825872E+04     0.126137035838130E+05     0.000000000000000E+00    -0.564607685549034E+04    -0.144504577547807E+05
    -0.240000000000000E+01     0.831794871794872E+01    -0.805242057570369E+04    -0.115255577204129E+05    -0.417406530671636E+04     0.125355408066215E+05     0.000000000000000E+00    -0.526809414914239E+04    -0.143098841469742E+05
    -0.256000000000000E+01     0.832307692307692E+01    -0.805891531350235E+04    -0.109716404501095E+05    -0.442264831408285E+04     0.124732891928806E+05     0.000000000000000E+00    -0.485901220635144E+04    -0.141715435572604E+05
    -0.272000000000000E+01     0.832820512820513E+01    -0.806446439344890E+04    -0.103897307769066E+05    -0.466544260655366E+04     0.124295431053221E+05     0.000000000000000E+00    -0.441897210287637E+04    -0.140352230674791E+05
    -0.288000000000000E+01     0.833333333333333E+01    -0.806887038262149E+04    -0.977995411573554E+04    -0.490208184991448E+04     0.124069419696945E+05     0.000000000000000E+00    -0.394823315787836E+04    -0.139005913404787E+05
    -0.304000000000000E+01     0.833846153846154E+01    -0.807192582711902E+04    -0.914244570904388E+04    -0.513220014534200E+04     0.124081260251098E+05     0.000000000000000E+00    -0.344714879764727E+04    -0.137672227385156E+05
    -0.320000000000000E+01     0.834358974358974E+01    -0.807341321855966E+04    -0.847735064242178E+04    -0.535543212520458E+04     0.124356857438707E+05     0.000000000000000E+00    -0.291614274864108E+04    -0.136346211123404E+05
     0.000000000000000E+00     0.849230769230769E+01    -0.815623383433217E+04    -0.109682404297796E+05     0.771472123485041E-12     0.986746749623723E+04     0.000000000000000E+00    -0.815623383433217E+04    -0.109682404297796E+05
    -0.140000000000000E+00     0.849487179487179E+01    -0.815901222330381E+04    -0.109014172729985E+05    -0.255730071449704E+03     0.983167207786404E+04     0.000000000000000E+00    -0.813536915325851E+04    -0.109250603430438E+05
    -0.280000000000000E+00     0.849743589743590E+01    -0.816193517686377E+04    -0.108121880550445E+05    -0.511215077180030E+03     0.980082858278055E+04     0.000000000000000E+00    -0.806674442084858E+04    -0.109073788110597E+05
    -0.420000000000000E+00     0.850000000000000E+01    -0.816497836226184E+04    -0.107005476137359E+05    -0.766204062221592E+03     0.977548245123594E+04     0.000000000000000E+00    -0.795143030348130E+04    -0.109140956725165E+05
    -0.560000000000000E+00     0.850256410256410E+01    -0.816811176282708E+04    -0.105664965134338E+05    -0.102044575847967E+04     0.975625453302600E+04     0.000000000000000E+00    -0.779270199822815E+04    -0.109419062780327E+05
    -0.700000000000000E+00     0.850512820512821E+01    -0.817129966818582E+04    -0.104100410496359E+05    -0.127368863461030E+04     0.974383785587144E+04     0.000000000000000E+00    -0.759500721984410E+04    -0.109863334979776E+05
    -0.840000000000000E+00     0.850769230769231E+01    -0.817450066447967E+04    -0.102311932535702E+05    -0.152568094589640E+04     0.973899314620169E+04     0.000000000000000E+00    -0.736295607906050E+04    -0.110427378389894E+05
    -0.980000000000000E+00     0.851025641025641E+01    -0.817766762458346E+04    -0.100299708967889E+05    -0.177617078412382E+04     0.974254297673525E+04     0.000000000000000E+00    -0.710068683684827E+04    -0.111069516845241E+05
    -0.112000000000000E+01     0.851282051282051E+01    -0.818074769832331E+04    -0.980639749576146E+04    -0.202490612745747E+04     0.975536444635715E+04     0.000000000000000E+00    -0.681161724896752E+04    -0.111755279451172E+05
    -0.126000000000000E+01     0.851538461538462E+01    -0.818368230269451E+04    -0.956050231646869E+04    -0.227163489031740E+04     0.977838034580399E+04     0.000000000000000E+00    -0.649843828835407E+04    -0.112457463308091E+05
    -0.140000000000000E+01     0.851794871794872E+01    -0.818640711207964E+04    -0.929232037899570E+04    -0.251610497325492E+04     0.981254882798493E+04     0.000000000000000E+00    -0.616321443408009E+04    -0.113155130569953E+05
    -0.154000000000000E+01     0.852051282051282E+01    -0.818885204846648E+04    -0.900189246212662E+04    -0.275806431282866E+04     0.985885168282302E+04     0.000000000000000E+00    -0.580750973496665E+04    -0.113832347756265E+05
    -0.168000000000000E+01     0.852307692307692E+01    -0.819094127166603E+04    -0.868926510793727E+04    -0.299726093148070E+04     0.991828140924570E+04     0.000000000000000E+00    -0.543250368973028E+04    -0.114477026898730E+05
    -0.182000000000000E+01     0.852564102564103E+01    -0.819259316953049E+04    -0.835449062638907E+04    -0.323344298741265E+04     0.999182737469693E+04     0.000000000000000E+00    -0.503908580002271E+04    -0.115079979958969E+05
    -0.196000000000000E+01     0.852820512820513E+01    -0.819372034817127E+04    -0.799762709992286E+04    -0.346635882446173E+04     0.100804614461593E+05     0.000000000000000E+00    -0.462792854303595E+04    -0.115634189050582E+05
    -0.210000000000000E+01     0.853076923076923E+01    -0.819422962217695E+04    -0.761873838805250E+04    -0.369575702197689E+04     0.101851235554619E+05     0.000000000000000E+00    -0.419954220551360E+04    -0.116134258047159E+05
    -0.224000000000000E+01     0.853333333333333E+01    -0.819402200483132E+04    -0.721789413195779E+04    -0.392138644469492E+04     0.103067077146835E+05     0.000000000000000E+00    -0.375431561813577E+04    -0.116576005186533E+05
    -0.238000000000000E+01     0.853589743589744E+01    -0.819299269833132E+04    -0.679516975907955E+04    -0.414299629261651E+04     0.104460490153676E+05     0.000000000000000E+00    -0.329254632786161E+04    -0.116956161295493E+05
    -0.252000000000000E+01     0.853846153846154E+01    -0.819103108400510E+04    -0.635064648771175E+04    -0.436033615088235E+04     0.106039121220766E+05     0.000000000000000E+00    -0.281446299220503E+04    -0.117272145795118E+05
    -0.266000000000000E+01     0.854102564102564E+01    -0.818802071252992E+04    -0.588441133159588E+04    -0.457315603964925E+04     0.107809817054395E+05     0.000000000000000E+00    -0.232024208151126E+04    -0.117521899626145E+05
    -0.280000000000000E+01     0.854358974358975E+01    -0.818383929415022E+04    -0.539655710451456E+04    -0.478120646396622E+04     0.109778551567658E+05     0.000000000000000E+00    -0.181002041613656E+04    -0.117703759825282E+05
     0.000000000000000E+00     0.874358974358974E+01    -0.848144144396871E+04    -0.551711839370622E+04    -0.141386681422022E-10     0.745522150857904E+04     0.000000000000000E+00    -0.551711839370622E+04    -0.848144144396871E+04
    -0.120000000000000E+00     0.874358974358974E+01    -0.848129672884684E+04    -0.550872325574979E+04    -0.219024445373479E+03     0.746332531148730E+04     0.000000000000000E+00    -0.549267182433771E+04    -0.849734816025892E+04
    -0.240000000000000E+00     0.874358974358974E+01    -0.848086101234994E+04    -0.548353941231611E+04    -0.437884922484367E+03     0.748760989913623E+04     0.000000000000000E+00    -0.542087788851693E+04    -0.854352253614912E+04
    -0.360000000000000E+00     0.874358974358974E+01    -0.848012958108417E+04    -0.544157157471278E+04    -0.656417486311547E+03     0.752799565524576E+04     0.000000000000000E+00    -0.530583015329445E+04    -0.861587100250250E+04
    -0.480000000000000E+00     0.874358974358974E+01    -0.847909457939313E+04    -0.538282759511872E+04    -0.874458238316771E+03     0.758435265221540E+04     0.000000000000000E+00    -0.515293000765214E+04    -0.870899216685971E+04
    -0.600000000000000E+00     0.874358974358974E+01    -0.847774500935785E+04    -0.530731846658446E+04    -0.109184334968612E+04     0.765650460765503E+04     0.000000000000000E+00    -0.496768810379348E+04    -0.881737537214883E+04
    -0.720000000000000E+00     0.874358974358974E+01    -0.847606673079681E+04    -0.521505832303246E+04    -0.130840908457146E+04     0.774423406053159E+04     0.000000000000000E+00    -0.475499363508959E+04    -0.893613141873968E+04
    -0.840000000000000E+00     0.874358974358974E+01    -0.847404246126594E+04    -0.510606443925636E+04    -0.152399182333185E+04     0.784728845256150E+04     0.000000000000000E+00    -0.451884890932538E+04    -0.906125799119692E+04
    -0.960000000000000E+00     0.874358974358974E+01    -0.847165177605858E+04    -0.498035723092157E+04    -0.173842808577504E+04     0.796538677089071E+04     0.000000000000000E+00    -0.426238590280584E+04    -0.918962310417430E+04
    -0.108000000000000E+01     0.874358974358974E+01    -0.846887110820554E+04    -0.483796025456532E+04    -0.195155455439884E+04     0.809822640990000E+04     0.000000000000000E+00    -0.398799946894028E+04    -0.931883189383058E+04
    -0.120000000000000E+01     0.874358974358974E+01    -0.846567374847504E+04    -0.467890020759607E+04    -0.216320809763265E+04     0.824548993875270E+04     0.000000000000000E+00    -0.369750303204262E+04    -0.944707092402850E+04
    -0.132000000000000E+01     0.874358974358974E+01    -0.846202984537276E+04    -0.450320692829418E+04    -0.237322579307884E+04     0.840685150997121E+04     0.000000000000000E+00    -0.339226721146014E+04    -0.957296956220679E+04
    -0.144000000000000E+01     0.874358974358974E+01    -0.845790640514182E+04    -0.431091339581151E+04    -0.258144495075419E+04     0.858198270466698E+04     0.000000000000000E+00    -0.307333065216005E+04    -0.969548914879328E+04
    -0.156000000000000E+01     0.874358974358974E+01    -0.845326729176276E+04    -0.410205573017147E+04    -0.278770313633140E+04     0.877055767414524E+04     0.000000000000000E+00    -0.274148429683554E+04    -0.981383872509869E+04
    -0.168000000000000E+01     0.874358974358974E+01    -0.844807322695359E+04    -0.387667319226908E+04    -0.299183819438045E+04     0.897225749889245E+04     0.000000000000000E+00    -0.239733398662413E+04    -0.992741243259854E+04
    -0.180000000000000E+01     0.874358974358974E+01    -0.844228179016974E+04    -0.363480818387118E+04    -0.319368827161012E+04     0.918677373975069E+04     0.000000000000000E+00    -0.204134654373117E+04    -0.100357434303098E+05
    -0.192000000000000E+01     0.874358974358974E+01    -0.843584741860407E+04    -0.337650624761588E+04    -0.339309184010934E+04     0.941381119969786E+04     0.000000000000000E+00    -0.167388365960100E+04    -0.101384700066189E+05
    -0.204000000000000E+01     0.874358974358974E+01    -0.842872140718691E+04    -0.310181606701319E+04    -0.358988772058875E+04     0.965308994714456E+04     0.000000000000000E+00    -0.129522690595051E+04    -0.102353105682496E+05
    -0.216000000000000E+01     0.874358974358974E+01    -0.842085190858599E+04    -0.281078946644449E+04    -0.378391510562204E+04     0.990434667343248E+04     0.000000000000000E+00    -0.905596310934406E+03    -0.103260450640961E+05
    -0.228000000000000E+01     0.874358974358974E+01    -0.841218393320651E+04    -0.250348141116305E+04    -0.397501358288745E+04     0.101673354695559E+05     0.000000000000000E+00    -0.505164264382744E+03    -0.104105010799868E+05
    -0.240000000000000E+01     0.874358974358974E+01    -0.840265934919110E+04    -0.217995000729340E+04    -0.416302315840919E+04     0.104418281117651E+05     0.000000000000000E+00    -0.940660166175539E+02    -0.104885433398669E+05
 zone I=   21 ,j=   21 ,f=point, T="    1"
     0.000000000000000E+00     0.874358974358974E+01    -0.848144144396871E+04    -0.551711839370622E+04    -0.141386681422022E-10     0.745522150857904E+04     0.000000000000000E+00    -0.551711839370622E+04    -0.848144144396871E+04
    -0.120000000000000E+00     0.874358974358974E+01    -0.848129672884684E+04    -0.550872325574979E+04    -0.219024445373479E+03     0.746332531148730E+04     0.000000000000000E+00    -0.549267182433771E+04    -0.849734816025892E+04
    -0.240000000000000E+00     0.874358974358974E+01    -0.848086101234994E+04    -0.548353941231611E+04    -0.437884922484367E+03     0.748760989913623E+04     0.000000000000000E+00    -0.542087788851693E+04    -0.854352253614912E+04
    -0.360000000000000E+00     0.874358974358974E+01    -0.848012958108417E+04    -0.544157157471278E+04    -0.656417486311546E+03     0.752799565524576E+04     0.000000000000000E+00    -0.530583015329445E+04    -0.861587100250250E+04
    -0.480000000000000E+00     0.874358974358974E+01    -0.847909457939313E+04    -0.538282759511872E+04    -0.874458238316771E+03     0.758435265221540E+04     0.000000000000000E+00    -0.515293000765214E+04    -0.870899216685971E+04
    -0.600000000000000E+00     0.874358974358974E+01    -0.847774500935785E+04    -0.530731846658446E+04    -0.109184334968612E+04     0.765650460765503E+04     0.000000000000000E+00    -0.496768810379348E+04    -0.881737537214883E+04
    -0.720000000000000E+00     0.874358974358974E+01    -0.847606673079681E+04    -0.521505832303246E+04    -0.130840908457146E+04     0.774423406053159E+04     0.000000000000000E+00    -0.475499363508959E+04    -0.893613141873967E+04
    -0.840000000000000E+00     0.874358974358974E+01    -0.847404246126594E+04    -0.510606443925636E+04    -0.152399182333185E+04     0.784728845256150E+04     0.000000000000000E+00    -0.451884890932538E+04    -0.906125799119692E+04
    -0.960000000000000E+00     0.874358974358974E+01    -0.847165177605858E+04    -0.498035723092157E+04    -0.173842808577504E+04     0.796538677089071E+04     0.000000000000000E+00    -0.426238590280584E+04    -0.918962310417430E+04
    -0.108000000000000E+01     0.874358974358974E+01    -0.846887110820554E+04    -0.483796025456532E+04    -0.195155455439884E+04     0.809822640990000E+04     0.000000000000000E+00    -0.398799946894028E+04    -0.931883189383058E+04
    -0.120000000000000E+01     0.874358974358974E+01    -0.846567374847504E+04    -0.467890020759607E+04    -0.216320809763265E+04     0.824548993875270E+04     0.000000000000000E+00    -0.369750303204262E+04    -0.944707092402849E+04
    -0.132000000000000E+01     0.874358974358974E+01    -0.846202984537276E+04    -0.450320692829418E+04    -0.237322579307884E+04     0.840685150997121E+04     0.000000000000000E+00    -0.339226721146014E+04    -0.957296956220679E+04
    -0.144000000000000E+01     0.874358974358974E+01    -0.845790640514181E+04    -0.431091339581151E+04    -0.258144495075419E+04     0.858198270466698E+04     0.000000000000000E+00    -0.307333065216005E+04    -0.969548914879328E+04
    -0.156000000000000E+01     0.874358974358974E+01    -0.845326729176276E+04    -0.410205573017147E+04    -0.278770313633140E+04     0.877055767414524E+04     0.000000000000000E+00    -0.274148429683554E+04    -0.981383872509869E+04
    -0.168000000000000E+01     0.874358974358974E+01    -0.844807322695359E+04    -0.387667319226908E+04    -0.299183819438045E+04     0.897225749889245E+04     0.000000000000000E+00    -0.239733398662413E+04    -0.992741243259854E+04
    -0.180000000000000E+01     0.874358974358974E+01    -0.844228179016974E+04    -0.363480818387118E+04    -0.319368827161011E+04     0.918677373975069E+04     0.000000000000000E+00    -0.204134654373117E+04    -0.100357434303097E+05
    -0.192000000000000E+01     0.874358974358974E+01    -0.843584741860407E+04    -0.337650624761588E+04    -0.339309184010934E+04     0.941381119969786E+04     0.000000000000000E+00    -0.167388365960100E+04    -0.101384700066189E+05
    -0.204000000000000E+01     0.874358974358974E+01    -0.842872140718691E+04    -0.310181606701319E+04    -0.358988772058875E+04     0.965308994714456E+04     0.000000000000000E+00    -0.129522690595051E+04    -0.102353105682496E+05
    -0.216000000000000E+01     0.874358974358974E+01    -0.842085190858599E+04    -0.281078946644449E+04    -0.378391510562204E+04     0.990434667343248E+04     0.000000000000000E+00    -0.905596310934406E+03    -0.103260450640961E+05
    -0.228000000000000E+01     0.874358974358974E+01    -0.841218393320651E+04    -0.250348141116305E+04    -0.397501358288745E+04     0.101673354695559E+05     0.000000000000000E+00    -0.505164264382745E+03    -0.104105010799868E+05
    -0.240000000000000E+01     0.874358974358974E+01    -0.840265934919110E+04    -0.217995000729340E+04    -0.416302315840919E+04     0.104418281117651E+05     0.000000000000000E+00    -0.940660166175549E+02    -0.104885433398669E+05
     0.000000000000000E+00     0.880641025641026E+01    -0.858316926854962E+04    -0.415421000713800E+04    -0.171898027135952E-10     0.743451194145332E+04     0.000000000000000E+00    -0.415421000713800E+04    -0.858316926854962E+04
    -0.121500000000000E+00     0.880641025641026E+01    -0.858296625180523E+04    -0.414555946130565E+04    -0.221579851596390E+03     0.744439848930123E+04     0.000000000000000E+00    -0.413452242620790E+04    -0.859400328690298E+04
    -0.243000000000000E+00     0.880641025641026E+01    -0.858235553682875E+04    -0.411960948064426E+04    -0.442987794626098E+03     0.747400629892248E+04     0.000000000000000E+00    -0.407606189986127E+04    -0.862590311761174E+04
    -0.364500000000000E+00     0.880641025641026E+01    -0.858133212939027E+04    -0.407636503566054E+04    -0.664051945253282E+03     0.752318188835074E+04     0.000000000000000E+00    -0.398052000353745E+04    -0.867717716151336E+04
    -0.486000000000000E+00     0.880641025641026E+01    -0.857988770577325E+04    -0.401583441053261E+04    -0.884600469103692E+03     0.759167601646450E+04     0.000000000000000E+00    -0.385037998358101E+04    -0.874534213272485E+04
    -0.607500000000000E+00     0.880641025641026E+01    -0.857801061277455E+04    -0.393802920310965E+04    -0.110446160599549E+04     0.767915295440070E+04     0.000000000000000E+00    -0.368854674995287E+04    -0.882749306593132E+04
    -0.729000000000000E+00     0.880641025641026E+01    -0.857568586770443E+04    -0.384296432491226E+04    -0.132346369467007E+04     0.778520240624357E+04     0.000000000000000E+00    -0.349801186255758E+04    -0.892063833005911E+04
    -0.850500000000000E+00     0.880641025641026E+01    -0.857289515838652E+04    -0.373065800113205E+04    -0.154143519752284E+04     0.790935319777057E+04     0.000000000000000E+00    -0.328161323250250E+04    -0.902193992701606E+04
    -0.972000000000000E+00     0.880641025641026E+01    -0.856961684315784E+04    -0.360113177063176E+04    -0.175820472533403E+04     0.805108781224699E+04     0.000000000000000E+00    -0.304189852496955E+04    -0.912885008882006E+04
    -0.109350000000000E+01     0.880641025641026E+01    -0.856582595086883E+04    -0.345441048594582E+04    -0.197360106199952E+04     0.820985691082976E+04     0.000000000000000E+00    -0.278107142938596E+04    -0.923916500742869E+04
    -0.121500000000000E+01     0.880641025641026E+01    -0.856149418088328E+04    -0.329052231327919E+04    -0.218745318926163E+04     0.838509310812425E+04     0.000000000000000E+00    -0.250099181464192E+04    -0.935102467952055E+04
    -0.133650000000000E+01     0.880641025641026E+01    -0.855658990307839E+04    -0.310949873250868E+04    -0.239959031143991E+04     0.857622345015486E+04     0.000000000000000E+00    -0.220320489739476E+04    -0.946288373819231E+04
    -0.145800000000000E+01     0.880641025641026E+01    -0.855107815784473E+04    -0.291137453718192E+04    -0.260984188016198E+04     0.878268023222188E+04     0.000000000000000E+00    -0.188898235842613E+04    -0.957347033660052E+04
    -0.157950000000000E+01     0.880641025641026E+01    -0.854492065608629E+04    -0.269618783451783E+04    -0.281803761909428E+04     0.900390997321963E+04     0.000000000000000E+00    -0.155936538892593E+04    -0.968174310167818E+04
    -0.170100000000000E+01     0.880641025641026E+01    -0.853807577922041E+04    -0.246398004540667E+04    -0.302400754867296E+04     0.923938051456895E+04     0.000000000000000E+00    -0.121520460747296E+04    -0.978685121715412E+04
    -0.182250000000000E+01     0.880641025641026E+01    -0.853049857917785E+04    -0.221479590440990E+04    -0.322758201083460E+04     0.948858632788878E+04     0.000000000000000E+00    -0.857194805361743E+03    -0.988809967822600E+04
    -0.194400000000000E+01     0.880641025641026E+01    -0.852214077840275E+04    -0.194868345975992E+04    -0.342859169374704E+04     0.975105219470861E+04     0.000000000000000E+00    -0.485904114831219E+03    -0.998492012333145E+04
    -0.206550000000000E+01     0.880641025641026E+01    -0.851295076985263E+04    -0.166569407336070E+04    -0.362686765654023E+04     0.100263354674568E+05     0.000000000000000E+00    -0.101797979062952E+03    -0.100768468641504E+05
    -0.218700000000000E+01     0.880641025641026E+01    -0.850287361699841E+04    -0.136588242078724E+04    -0.382224135403697E+04     0.103140271397724E+05     0.294741390932249E+03     0.000000000000000E+00    -0.101634974287179E+05
    -0.230850000000000E+01     0.880641025641026E+01    -0.849185105382440E+04    -0.104930649128582E+04    -0.401454466148376E+04     0.106137519528358E+05     0.703399326632983E+03     0.000000000000000E+00    -0.102445568717432E+05
    -0.243000000000000E+01     0.880641025641026E+01    -0.847982148482828E+04    -0.716027587773831E+03    -0.420360989928159E+04     0.109251677494896E+05     0.112391608576481E+04     0.000000000000000E+00    -0.103197651583669E+05
     0.000000000000000E+00     0.886923076923077E+01    -0.869381486380873E+04    -0.279119308926814E+04    -0.199498106321214E-10     0.768811158741341E+04     0.000000000000000E+00    -0.279119308926814E+04    -0.869381486380873E+04
    -0.123000000000000E+00     0.886923076923077E+01    -0.869354940709588E+04    -0.278228185898598E+04    -0.224072808912416E+03     0.769945548087526E+04     0.000000000000000E+00    -0.277380031307981E+04    -0.870203095300205E+04
    -0.246000000000000E+00     0.886923076923077E+01    -0.869275127421664E+04    -0.275554991503677E+04    -0.447965470194978E+03     0.773341381292969E+04     0.000000000000000E+00    -0.272194089886113E+04    -0.872636029039228E+04
    -0.369000000000000E+00     0.886923076923077E+01    -0.869141517694897E+04    -0.271100249811279E+04    -0.671497862513429E+03     0.778976971444656E+04     0.000000000000000E+00    -0.263653212837276E+04    -0.876588554668899E+04
    -0.492000000000000E+00     0.886923076923077E+01    -0.868953230158948E+04    -0.264864834270070E+04    -0.894489917124614E+03     0.786817202212316E+04     0.000000000000000E+00    -0.251898207590537E+04    -0.881919856838482E+04
    -0.615000000000000E+00     0.886923076923077E+01    -0.868709030895341E+04    -0.256849967708215E+04    -0.111676164417206E+04     0.796814970262449E+04     0.000000000000000E+00    -0.237104133331314E+04    -0.888454865272242E+04
    -0.738000000000000E+00     0.886923076923077E+01    -0.868407333437468E+04    -0.247057222333347E+04    -0.133813315898152E+04     0.808913020513978E+04     0.000000000000000E+00    -0.219464641753994E+04    -0.895999914016821E+04
    -0.861000000000000E+00     0.886923076923077E+01    -0.868046198770580E+04    -0.235488519732573E+04    -0.155842470835656E+04     0.823046024755850E+04     0.000000000000000E+00    -0.199178108077281E+04    -0.904356610425871E+04
    -0.984000000000000E+00     0.886923076923077E+01    -0.867623335331797E+04    -0.222146130872463E+04    -0.177745669687410E+04     0.839142751713399E+04     0.000000000000000E+00    -0.176437004839646E+04    -0.913332461364613E+04
    -0.110700000000000E+01     0.886923076923077E+01    -0.867136099010100E+04    -0.207032676099092E+04    -0.199504971317998E+04     0.857128191579768E+04     0.000000000000000E+00    -0.151420847904680E+04    -0.922747927204512E+04
    -0.123000000000000E+01     0.886923076923077E+01    -0.866581493146336E+04    -0.190151125137965E+04    -0.221102455628452E+04     0.876925524981597E+04     0.000000000000000E+00    -0.124292297881940E+04    -0.932440320402361E+04
    -0.135300000000000E+01     0.886923076923077E+01    -0.865956168533216E+04    -0.171504797094085E+04    -0.242520226185806E+04     0.898457859110818E+04     0.000000000000000E+00    -0.951956708646953E+03    -0.942265294762606E+04
    -0.147600000000000E+01     0.886923076923077E+01    -0.865256423415316E+04    -0.151097360451939E+04    -0.263740412852657E+04     0.921649686713958E+04     0.000000000000000E+00    -0.642570825368489E+03    -0.952096701330406E+04
    -0.159900000000000E+01     0.886923076923077E+01    -0.864478203489074E+04    -0.128932833075462E+04    -0.284745174416714E+04     0.946428052683110E+04     0.000000000000000E+00    -0.315855742486577E+03    -0.961825462315879E+04
    -0.172200000000000E+01     0.886923076923077E+01    -0.863617101902795E+04    -0.105015582208082E+04    -0.305516701220360E+04     0.972723435832621E+04     0.272525898635386E+02     0.000000000000000E+00    -0.971357943097231E+04
    -0.184500000000000E+01     0.886923076923077E+01    -0.862668359256647E+04    -0.793503244727006E+03    -0.326037217790205E+04     0.100047036937146E+05     0.385954592202686E+03     0.000000000000000E+00    -0.980614142949616E+04
    -0.196800000000000E+01     0.886923076923077E+01    -0.861626863602662E+04    -0.519421258716757E+03    -0.346288985466645E+04     0.102960783305330E+05     0.759569107159290E+03     0.000000000000000E+00    -0.989525900190267E+04
    -0.209100000000000E+01     0.886923076923077E+01    -0.860487150444738E+04    -0.227964017868595E+03    -0.366254305033410E+04     0.106007945412949E+05     0.114751667008988E+04     0.000000000000000E+00    -0.998035219240586E+04
    -0.221400000000000E+01     0.886923076923077E+01    -0.859243402738633E+04     0.808108302043693E+02    -0.385915519347132E+04     0.109183355441379E+05     0.154930449820050E+04     0.000000000000000E+00    -0.100609276953825E+05
    -0.233700000000000E+01     0.886923076923077E+01    -0.857889450891977E+04     0.406842144094262E+03    -0.405255015966890E+04     0.112482307831610E+05     0.196451334691539E+04     0.000000000000000E+00    -0.101365657117409E+05
    -0.246000000000000E+01     0.886923076923077E+01    -0.856418772764256E+04     0.750065288598387E+03    -0.424255229783773E+04     0.115900543273392E+05     0.239278618438593E+04     0.000000000000000E+00    -0.102069086234301E+05
     0.000000000000000E+00     0.893205128205128E+01    -0.881377741005644E+04    -0.142803769835143E+04    -0.224083710150810E-10     0.819362907968717E+04     0.000000000000000E+00    -0.142803769835143E+04    -0.881377741005644E+04
    -0.124500000000000E+00     0.893205128205128E+01    -0.881344521317074E+04    -0.141886042922887E+04    -0.226499767867803E+03     0.820602456854607E+04     0.000000000000000E+00    -0.141192912701362E+04    -0.882037651538599E+04
    -0.249000000000000E+00     0.893205128205128E+01    -0.881244675723887E+04    -0.139133046259329E+04    -0.452810841983459E+03     0.824312475083541E+04     0.000000000000000E+00    -0.136380361579392E+04    -0.883997360403824E+04
    -0.373500000000000E+00     0.893205128205128E+01    -0.881077644643662E+04    -0.134545332064072E+04    -0.678744556533402E+03     0.830467460644278E+04     0.000000000000000E+00    -0.128424396900303E+04    -0.887198579807431E+04
    -0.498000000000000E+00     0.893205128205128E+01    -0.880842495439032E+04    -0.128123820703142E+04    -0.904112301581109E+03     0.839026150287106E+04     0.000000000000000E+00    -0.117416572891300E+04    -0.891549743250874E+04
    -0.622500000000000E+00     0.893205128205128E+01    -0.880537922417679E+04    -0.119869800688952E+04    -0.112872555100566E+04     0.849933254884389E+04     0.000000000000000E+00    -0.103474468202498E+04    -0.896933254904133E+04
    -0.747000000000000E+00     0.893205128205128E+01    -0.880162246832339E+04    -0.109784928680354E+04    -0.135239589044029E+04     0.863121660690465E+04     0.000000000000000E+00    -0.867334016825610E+03    -0.903213773830132E+04
    -0.871500000000000E+00     0.893205128205128E+01    -0.879713416880802E+04    -0.978712294825556E+03    -0.157493504521087E+04     0.878514912563867E+04     0.000000000000000E+00    -0.673382859898965E+03    -0.910246360373461E+04
    -0.996000000000000E+00     0.893205128205128E+01    -0.879189007705907E+04    -0.841310960472358E+03    -0.179615490827451E+04     0.896029793800176E+04     0.000000000000000E+00    -0.454364907660463E+03    -0.917883612987097E+04
    -0.112050000000000E+01     0.893205128205128E+01    -0.878586221395550E+04    -0.685672894724237E+03    -0.201586756815804E+04     0.915578837355548E+04     0.000000000000000E+00    -0.211721930763722E+03    -0.925981317791602E+04
    -0.124500000000000E+01     0.893205128205128E+01    -0.877901886982675E+04    -0.511829390025960E+03    -0.223388533689659E+04     0.937072637863808E+04     0.531766375504694E+02     0.000000000000000E+00    -0.934402489740318E+04
    -0.136950000000000E+01     0.893205128205128E+01    -0.877132460445282E+04    -0.319815420286002E+03    -0.245002077797207E+04     0.960421874971508E+04     0.339059316966529E+03     0.000000000000000E+00    -0.943019934170535E+04
    -0.149400000000000E+01     0.893205128205128E+01    -0.876274024706422E+04    -0.109669640877284E+03    -0.266408673425175E+04     0.985538999098976E+04     0.644766012109417E+03     0.000000000000000E+00    -0.951717590005092E+04
    -0.161850000000000E+01     0.893205128205128E+01    -0.875322289634197E+04     0.118565611363505E+03    -0.287589635592677E+04     0.101233956581499E+05     0.969252264051083E+03     0.000000000000000E+00    -0.960390954902954E+04
    -0.174300000000000E+01     0.893205128205128E+01    -0.874272592041764E+04     0.364844318135409E+03    -0.308526312845070E+04     0.104074323196661E+05     0.131158712664197E+04     0.000000000000000E+00    -0.968946872892420E+04
    -0.186750000000000E+01     0.893205128205128E+01    -0.873119895687330E+04     0.629116779673583E+03    -0.329200090047804E+04     0.107067444493485E+05     0.167094699254030E+04     0.000000000000000E+00    -0.977302916974002E+04
    -0.199200000000000E+01     0.893205128205128E+01    -0.871858791274159E+04     0.911329614748887E+03    -0.349592391180277E+04     0.110206286669109E+05     0.204660713989853E+04     0.000000000000000E+00    -0.985386543789123E+04
    -0.211650000000000E+01     0.893205128205128E+01    -0.870483496450562E+04     0.121142576066838E+04    -0.369684682129691E+04     0.113484357825939E+05     0.243793225989794E+04     0.000000000000000E+00    -0.993134146373517E+04
    -0.224100000000000E+01     0.893205128205128E+01    -0.868987855809905E+04     0.152934447327463E+04    -0.389458473484899E+04     0.116895710951881E+05     0.284436680693347E+04     0.000000000000000E+00    -0.100049008917579E+05
    -0.236550000000000E+01     0.893205128205128E+01    -0.867365340890607E+04     0.186502132694671E+04    -0.408895323330266E+04     0.120434933565954E+05     0.326542569623636E+04     0.000000000000000E+00    -0.100740577781957E+05
    -0.249000000000000E+01     0.893205128205128E+01    -0.865609050176139E+04     0.221838821459925E+04    -0.427976840039517E+04     0.124097127638810E+05     0.370068564721398E+04     0.000000000000000E+00    -0.101383879343761E+05
     0.000000000000000E+00     0.899487179487179E+01    -0.894347101895914E+04    -0.647131688944937E+02    -0.245551447307999E-10     0.891129066469260E+04     0.000000000000000E+00    -0.647131688944937E+02    -0.894347101895914E+04
    -0.126000000000000E+00     0.899487179487179E+01    -0.894306761636284E+04    -0.552644275413186E+02    -0.228857099399895E+03     0.892437144853041E+04     0.000000000000000E+00    -0.493753580272878E+02    -0.894895668587687E+04
    -0.252000000000000E+00     0.899487179487179E+01    -0.894185543607371E+04    -0.269201419344172E+02    -0.457516643409890E+03     0.896352340060412E+04     0.000000000000000E+00    -0.350179361546634E+01    -0.896527378439266E+04
    -0.378000000000000E+00     0.899487179487179E+01    -0.893982856059100E+04     0.203138725681929E+02    -0.685781106302763E+03     0.902847922197444E+04     0.724974845906718E+02     0.000000000000000E+00    -0.899201217261348E+04
    -0.504000000000000E+00     0.899487179487179E+01    -0.893697712741354E+04     0.864279237033625E+02    -0.913453021676513E+03     0.911880604068565E+04     0.177969482694465E+03     0.000000000000000E+00    -0.902851868640464E+04
    -0.630000000000000E+00     0.899487179487179E+01    -0.893328732903965E+04     0.171408442302432E+03    -0.114033501211702E+04     0.923392311222936E+04     0.312059087638356E+03     0.000000000000000E+00    -0.907393797437558E+04
    -0.756000000000000E+00     0.899487179487179E+01    -0.892874141296719E+04     0.275237982291583E+03    -0.136622981886067E+04     0.937312432923365E+04     0.473757955002530E+03     0.000000000000000E+00    -0.912726138567814E+04
    -0.882000000000000E+00     0.899487179487179E+01    -0.892331768169350E+04     0.397895220691775E+03    -0.159094033145696E+04     0.953560370024376E+04     0.661955624338640E+03     0.000000000000000E+00    -0.918737808534037E+04
    -0.100800000000000E+01     0.899487179487179E+01    -0.891699049271550E+04     0.539354957618343E+03    -0.181426961743115E+04     0.972048193151806E+04     0.875487867357966E+03     0.000000000000000E+00    -0.925312340245512E+04
    -0.113400000000000E+01     0.899487179487179E+01    -0.890973025852959E+04     0.699588116281724E+03    -0.203602095194689E+04     0.992683243389570E+04     0.111317875270477E+04     0.000000000000000E+00    -0.932332089495264E+04
    -0.126000000000000E+01     0.899487179487179E+01    -0.890150344663170E+04     0.878561742986785E+03    -0.225599784746882E+04     0.101537054119796E+05     0.137387454713579E+04     0.000000000000000E+00    -0.939681625078071E+04
    -0.138600000000000E+01     0.899487179487179E+01    -0.889227257951730E+04     0.107623900713318E+04    -0.247400408342521E+04     0.104001490977515E+05     0.165646899580980E+04     0.000000000000000E+00    -0.947250256819392E+04
    -0.151200000000000E+01     0.899487179487179E+01    -0.888199623468137E+04     0.129257920121533E+04    -0.268984373587059E+04     0.106652275959183E+05     0.195992054590780E+04     0.000000000000000E+00    -0.954933757937384E+04
    -0.163800000000000E+01     0.899487179487179E+01    -0.887062904461840E+04     0.152753774082221E+04    -0.290332120714836E+04     0.109480351635800E+05     0.228326267048622E+04     0.000000000000000E+00    -0.962635397428240E+04
    -0.176400000000000E+01     0.899487179487179E+01    -0.885812169682241E+04     0.178106616463754E+04    -0.311424125555343E+04     0.112477070244720E+05     0.262560868483483E+04     0.000000000000000E+00    -0.970266421701970E+04
    -0.189000000000000E+01     0.899487179487179E+01    -0.884442093378694E+04     0.205311213443978E+04    -0.332240902499486E+04     0.115634270101880E+05     0.298615243480841E+04     0.000000000000000E+00    -0.977746123415557E+04
    -0.201600000000000E+01     0.899487179487179E+01    -0.882946955300508E+04     0.234361943510218E+04    -0.352763007465844E+04     0.118944324337482E+05     0.336416608070113E+04     0.000000000000000E+00    -0.985001619860403E+04
    -0.214200000000000E+01     0.899487179487179E+01    -0.881320640696940E+04     0.265252797459243E+04    -0.372971040866935E+04     0.122400166489182E+05     0.375899598247438E+04     0.000000000000000E+00    -0.991967441485134E+04
    -0.226800000000000E+01     0.899487179487179E+01    -0.879556640317200E+04     0.297977378397324E+04    -0.392845650575479E+04     0.125995297488617E+05     0.417005746591771E+04     0.000000000000000E+00    -0.998585008511647E+04
    -0.239400000000000E+01     0.899487179487179E+01    -0.877648050410453E+04     0.332528901740184E+04    -0.412367534890658E+04     0.129723778263455E+05     0.459682904431940E+04     0.000000000000000E+00    -0.100480205310221E+05
    -0.252000000000000E+01     0.899487179487179E+01    -0.875587572725814E+04     0.368900195212997E+04    -0.431517445504380E+04     0.133580211684537E+05     0.503884649931438E+04     0.000000000000000E+00    -0.101057202744426E+05
     0.000000000000000E+00     0.905769230769231E+01    -0.908332496584894E+04     0.129881189368534E+04    -0.263797764413290E-10     0.979751168768105E+04     0.129881189368534E+04     0.000000000000000E+00    -0.908332496584894E+04
    -0.127500000000000E+00     0.905769230769231E+01    -0.908284572316562E+04     0.130853762085331E+04    -0.231141094199221E+03     0.981100815846507E+04     0.131367647444417E+04     0.000000000000000E+00    -0.908798457675647E+04
    -0.255000000000000E+00     0.905769230769231E+01    -0.908140591054025E+04     0.133771276218302E+04    -0.462075447241096E+03     0.985140916255263E+04     0.135816510821901E+04     0.000000000000000E+00    -0.910185825657625E+04
    -0.382500000000000E+00     0.905769230769231E+01    -0.907899927424666E+04     0.138633119715119E+04    -0.692596349439132E+03     0.991845305743473E+04     0.143196826163823E+04     0.000000000000000E+00    -0.912463633873371E+04
    -0.510000000000000E+00     0.905769230769231E+01    -0.907561539140787E+04     0.145438272488609E+04    -0.922497154048409E+03     0.100117153916730E+05     0.153458862833937E+04     0.000000000000000E+00    -0.915582129486115E+04
    -0.637500000000000E+00     0.905769230769231E+01    -0.907123966999613E+04     0.154185306416696E+04    -0.115157130873641E+04     0.101306252590985E+05     0.166536662540032E+04     0.000000000000000E+00    -0.919475323122949E+04
    -0.765000000000000E+00     0.905769230769231E+01    -0.906585334883288E+04     0.164872385342460E+04    -0.137961238705382E+04     0.102744862144441E+05     0.182351185103311E+04     0.000000000000000E+00    -0.924064134644138E+04
    -0.892500000000000E+00     0.905769230769231E+01    -0.905943349758879E+04     0.177497265074088E+04    -0.160641411990532E+04     0.104425001255174E+05     0.200813730543866E+04     0.000000000000000E+00    -0.929259815228658E+04
    -0.102000000000000E+01     0.905769230769231E+01    -0.905195301678374E+04     0.192057293384886E+04    -0.183177042702040E+04     0.106337922899932E+05     0.221829338966659E+04     0.000000000000000E+00    -0.934967347260147E+04
    -0.114750000000000E+01     0.905769230769231E+01    -0.904338063778681E+04     0.208549410013325E+04    -0.205547544842415E+04     0.108474362834808E+05     0.245299929260731E+04     0.000000000000000E+00    -0.941088583026088E+04
    -0.127500000000000E+01     0.905769230769231E+01    -0.903368092281631E+04     0.226970146662937E+04    -0.227732357590804E+04     0.110824772776944E+05     0.271127015721376E+04     0.000000000000000E+00    -0.947524961340071E+04
    -0.140250000000000E+01     0.905769230769231E+01    -0.902281426493975E+04     0.247315627002445E+04    -0.249710948450079E+04     0.113379529105088E+05     0.299213920198098E+04     0.000000000000000E+00    -0.954179719689628E+04
    -0.153000000000000E+01     0.905769230769231E+01    -0.901073688807384E+04     0.269581566665650E+04    -0.271462816393908E+04     0.116129111445420E+05     0.329467463644922E+04     0.000000000000000E+00    -0.960959585786656E+04
    -0.165750000000000E+01     0.905769230769231E+01    -0.899740084698453E+04     0.293763273251514E+04    -0.292967495013841E+04     0.119064248726698E+05     0.361799168990549E+04     0.000000000000000E+00    -0.967775980437488E+04
    -0.178500000000000E+01     0.905769230769231E+01    -0.898275402728696E+04     0.319855646324082E+04    -0.314204555666389E+04     0.122176032901472E+05     0.396126036490713E+04     0.000000000000000E+00    -0.974545792895327E+04
    -0.191250000000000E+01     0.905769230769231E+01    -0.896674014544549E+04     0.347853177412570E+04    -0.335153610620100E+04     0.125456002430858E+05     0.432370966016158E+04     0.000000000000000E+00    -0.981191803148137E+04
    -0.204000000000000E+01     0.905769230769231E+01    -0.894929874877368E+04     0.377749950011302E+04    -0.355794316202647E+04     0.128896198838695E+05     0.470462902324916E+04     0.000000000000000E+00    -0.987642827190983E+04
    -0.216750000000000E+01     0.905769230769231E+01    -0.893036521543433E+04     0.409539639579711E+04    -0.376106375947901E+04     0.132489200256016E+05     0.510336773545217E+04     0.000000000000000E+00    -0.993833655508939E+04
    -0.229500000000000E+01     0.905769230769231E+01    -0.890987075443942E+04     0.443215513542382E+04    -0.396069543743013E+04     0.136228136032822E+05     0.551933283390417E+04     0.000000000000000E+00    -0.999704845291978E+04
    -0.242250000000000E+01     0.905769230769231E+01    -0.888774240565017E+04     0.478770431289013E+04    -0.415663626975496E+04     0.140106686329159E+05     0.595198606589972E+04     0.000000000000000E+00    -0.100520241586598E+05
    -0.255000000000000E+01     0.905769230769231E+01    -0.886390303977697E+04     0.516196844174428E+04    -0.434868489680301E+04     0.144119070233328E+05     0.640084026270735E+04     0.000000000000000E+00    -0.101027748607400E+05
     0.000000000000000E+00     0.912051282051282E+01    -0.923378392203347E+04     0.266256961840074E+04    -0.278718966451474E-10     0.108137706201546E+05     0.266256961840074E+04     0.000000000000000E+00    -0.923378392203347E+04
    -0.129000000000000E+00     0.912051282051282E+01    -0.923322403251219E+04     0.267257792636697E+04    -0.233347962071577E+03     0.108275095640580E+05     0.267714967807905E+04     0.000000000000000E+00    -0.923779578422428E+04
    -0.258000000000000E+00     0.912051282051282E+01    -0.923154216228643E+04     0.270260070425121E+04    -0.466479664314957E+03     0.108686431278918E+05     0.272080660515431E+04     0.000000000000000E+00    -0.924974806318953E+04
    -0.387000000000000E+00     0.912051282051282E+01    -0.922873170637046E+04     0.275263151400996E+04    -0.699178880268099E+03     0.109369246230019E+05     0.279329446878071E+04     0.000000000000000E+00    -0.926939466114121E+04
    -0.516000000000000E+00     0.912051282051282E+01    -0.922478165645476E+04     0.282265962557078E+04    -0.931229450201129E+03     0.110319530262886E+05     0.289421573380289E+04     0.000000000000000E+00    -0.929633776468686E+04
    -0.645000000000000E+00     0.912051282051282E+01    -0.921967660090597E+04     0.291267001683221E+04    -0.116241531448246E+04     0.111531872997195E+05     0.302303845691772E+04     0.000000000000000E+00    -0.933004504099148E+04
    -0.774000000000000E+00     0.912051282051282E+01    -0.921339672476694E+04     0.302264337366392E+04    -0.139252054694491E+04     0.112999648296951E+05     0.317911794921833E+04     0.000000000000000E+00    -0.936987130032136E+04
    -0.903000000000000E+00     0.912051282051282E+01    -0.920591780975669E+04     0.315255608990640E+04    -0.162132938825176E+04     0.114715226465345E+05     0.336172099557614E+04     0.000000000000000E+00    -0.941508271542644E+04
    -0.103200000000000E+01     0.912051282051282E+01    -0.919721123427044E+04     0.330238026737131E+04    -0.184862627926289E+04     0.116670200211604E+05     0.357005074564284E+04     0.000000000000000E+00    -0.946488171254197E+04
    -0.116100000000000E+01     0.912051282051282E+01    -0.918724397337957E+04     0.347208371584132E+04    -0.207419589440087E+04     0.118855611215748E+05     0.380327064227493E+04     0.000000000000000E+00    -0.951843089981317E+04
    -0.129000000000000E+01     0.912051282051282E+01    -0.917597859883167E+04     0.366162995307011E+04    -0.229782317501704E+04     0.121262166101627E+05     0.406052614550376E+04     0.000000000000000E+00    -0.957487479126532E+04
    -0.141900000000000E+01     0.912051282051282E+01    -0.916337327905051E+04     0.387097820478238E+04    -0.251929336275762E+04     0.123880433282061E+05     0.434096345275724E+04     0.000000000000000E+00    -0.963335852702536E+04
    -0.154800000000000E+01     0.912051282051282E+01    -0.914938177913605E+04     0.410008340467376E+04    -0.273839203292980E+04     0.126701015007524E+05     0.464374483376550E+04     0.000000000000000E+00    -0.969304320822779E+04
    -0.167700000000000E+01     0.912051282051282E+01    -0.913395346086443E+04     0.434889619441092E+04    -0.295490512786784E+04     0.129714691660188E+05     0.496806054301378E+04     0.000000000000000E+00    -0.975311780946729E+04
    -0.180600000000000E+01     0.912051282051282E+01    -0.911703328268798E+04     0.461736292363174E+04    -0.316861899029919E+04     0.132912537638939E+05     0.531313752263913E+04     0.000000000000000E+00    -0.981280788169537E+04
    -0.193500000000000E+01     0.912051282051282E+01    -0.909856179973522E+04     0.490542564994498E+04    -0.337932039671054E+04     0.136286009953935E+05     0.567824526475003E+04     0.000000000000000E+00    -0.987138141454026E+04
    -0.206400000000000E+01     0.912051282051282E+01    -0.907847516381083E+04     0.521302213893022E+04    -0.358679659071397E+04     0.139827011870759E+05     0.606269927808024E+04     0.000000000000000E+00    -0.992815230296085E+04
    -0.219300000000000E+01     0.912051282051282E+01    -0.905670512339573E+04     0.554008586413850E+04    -0.379083531641300E+04     0.143527934665157E+05     0.646586261927305E+04     0.000000000000000E+00    -0.998248187853027E+04
    -0.232200000000000E+01     0.912051282051282E+01    -0.903317902364697E+04     0.588654600709156E+04    -0.399122485176873E+04     0.147381680860269E+05     0.688714592385848E+04     0.000000000000000E+00    -0.100337789404139E+05
    -0.245100000000000E+01     0.912051282051282E+01    -0.900781980639782E+04     0.625232745728217E+04    -0.418775404196590E+04     0.151381672322449E+05     0.732600632326182E+04     0.000000000000000E+00    -0.100814986723775E+05
    -0.258000000000000E+01     0.912051282051282E+01    -0.898054601015773E+04     0.663735081217412E+04    -0.438021233277901E+04     0.155521846388025E+05     0.778194557499692E+04     0.000000000000000E+00    -0.101251407729805E+05
     0.000000000000000E+00     0.918333333333333E+01    -0.939530818710558E+04     0.402659287403570E+04    -0.290211237198628E-10     0.119296415327325E+05     0.402659287403570E+04     0.000000000000000E+00    -0.939530818710558E+04
    -0.130500000000000E+00     0.918333333333333E+01    -0.939466266805463E+04     0.403688944039910E+04    -0.235473831300105E+03     0.119435221478845E+05     0.404101635688201E+04     0.000000000000000E+00    -0.939878958453754E+04
    -0.261000000000000E+00     0.918333333333333E+01    -0.939272378697675E+04     0.406777688339684E+04    -0.470721542262994E+03     0.119850869798839E+05     0.408421820743329E+04     0.000000000000000E+00    -0.940916511101319E+04
    -0.391500000000000E+00     0.918333333333333E+01    -0.938948457209691E+04     0.411924843475159E+04    -0.705517047903141E+03     0.120541076292785E+05     0.415599532807322E+04     0.000000000000000E+00    -0.942623146541855E+04
    -0.522000000000000E+00     0.918333333333333E+01    -0.938493340379005E+04     0.419129281400115E+04    -0.939634333938244E+03     0.121502120321418E+05     0.425601796823973E+04     0.000000000000000E+00    -0.944965855802862E+04
    -0.652500000000000E+00     0.918333333333333E+01    -0.937905401458108E+04     0.428389422849828E+04    -0.117284749214088E+04     0.122728966854077E+05     0.438384203273166E+04     0.000000000000000E+00    -0.947900181881446E+04
    -0.783000000000000E+00     0.918333333333333E+01    -0.937182548914489E+04     0.439703237341109E+04    -0.140493075569016E+04     0.124215424988362E+05     0.453892482235059E+04     0.000000000000000E+00    -0.951371793808440E+04
    -0.913500000000000E+00     0.918333333333333E+01    -0.936322226430635E+04     0.453068243172261E+04    -0.163565853452331E+04     0.125954332045311E+05     0.472064298545654E+04     0.000000000000000E+00    -0.955318281804028E+04
    -0.104400000000000E+01     0.918333333333333E+01    -0.935321412904030E+04     0.468481507423104E+04    -0.186480545068735E+04     0.127937751846122E+05     0.492831142590126E+04     0.000000000000000E+00    -0.959671048071052E+04
    -0.117450000000000E+01     0.918333333333333E+01    -0.934176622447155E+04     0.485939645954975E+04    -0.209214637369066E+04     0.130157176216965E+05     0.516120201930645E+04     0.000000000000000E+00    -0.964357178422825E+04
    -0.130500000000000E+01     0.918333333333333E+01    -0.932883904387491E+04     0.505438823410709E+04    -0.231745645585469E+04     0.132603720122474E+05     0.541856119594753E+04     0.000000000000000E+00    -0.969301200571535E+04
    -0.143550000000000E+01     0.918333333333333E+01    -0.931438843267512E+04     0.526974753214652E+04    -0.254051116766553E+04     0.135268302777465E+05     0.569962570683458E+04     0.000000000000000E+00    -0.974426660736319E+04
    -0.156600000000000E+01     0.918333333333333E+01    -0.929836558844696E+04     0.550542697572679E+04    -0.276108633312552E+04     0.138141809297257E+05     0.600363615557800E+04     0.000000000000000E+00    -0.979657476829817E+04
    -0.169650000000000E+01     0.918333333333333E+01    -0.928071706091512E+04     0.576137467472153E+04    -0.297895816510496E+04     0.141215229629680E+05     0.632984811865917E+04     0.000000000000000E+00    -0.984919050485275E+04
    -0.182700000000000E+01     0.918333333333333E+01    -0.926138475195430E+04     0.603753422681967E+04    -0.319390330069365E+04     0.144479773454268E+05     0.667754087066192E+04     0.000000000000000E+00    -0.990139139579655E+04
    -0.195750000000000E+01     0.918333333333333E+01    -0.924030591558918E+04     0.633384471752515E+04    -0.340569883655258E+04     0.147926961310997E+05     0.704602387127475E+04     0.000000000000000E+00    -0.995248506933878E+04
    -0.208800000000000E+01     0.918333333333333E+01    -0.921741315799440E+04     0.665024072015696E+04    -0.361412236426552E+04     0.151548693386205E+05     0.743464125936419E+04     0.000000000000000E+00    -0.100018136972016E+05
    -0.221850000000000E+01     0.918333333333333E+01    -0.919263443749458E+04     0.698665229584932E+04    -0.381895200569068E+04     0.155337298150650E+05     0.784277464384418E+04     0.000000000000000E+00    -0.100487567854895E+05
    -0.234900000000000E+01     0.918333333333333E+01    -0.916589306456432E+04     0.734300499355144E+04    -0.401996644831230E+04     0.159285563465894E+05     0.826984449164873E+04     0.000000000000000E+00    -0.100927325626616E+05
    -0.247950000000000E+01     0.918333333333333E+01    -0.913710770182820E+04     0.771921985002776E+04    -0.421694498059232E+04     0.163386752920698E+05     0.871531040021001E+04     0.000000000000000E+00    -0.101331982520104E+05
    -0.261000000000000E+01     0.918333333333333E+01    -0.910619236406076E+04     0.811521338985776E+04    -0.440966752732197E+04     0.167634610102510E+05     0.917867051451065E+04     0.000000000000000E+00    -0.101696494887136E+05
     0.000000000000000E+00     0.924615384615385E+01    -0.956837392125315E+04     0.539091527448644E+04    -0.298170659649137E-10     0.131224250852382E+05     0.539091527448644E+04     0.000000000000000E+00    -0.956837392125315E+04
    -0.132000000000000E+00     0.924615384615385E+01    -0.956763761044334E+04     0.540150586068883E+04    -0.237514748007381E+03     0.131363939268029E+05     0.540527354854339E+04     0.000000000000000E+00    -0.957140529829789E+04
    -0.264000000000000E+00     0.924615384615385E+01    -0.956542622648037E+04     0.543327524876609E+04    -0.474793164232948E+03     0.131782297001431E+05     0.544829008880093E+04     0.000000000000000E+00    -0.958044106651520E+04
    -0.396000000000000E+00     0.924615384615385E+01    -0.956173241476371E+04     0.548621632712873E+04    -0.711598954325526E+03     0.132477223727138E+05     0.551979204906663E+04     0.000000000000000E+00    -0.959530813670161E+04
    -0.528000000000000E+00     0.924615384615385E+01    -0.955654391762579E+04     0.556031724312750E+04    -0.947695898795063E+03     0.133445291401904E+05     0.561949786016477E+04     0.000000000000000E+00    -0.961572453466305E+04
    -0.660000000000000E+00     0.924615384615385E+01    -0.954984357433201E+04     0.565556140305352E+04    -0.118284789044323E+04     0.134681847773888E+05     0.574702646280296E+04     0.000000000000000E+00    -0.964130863408145E+04
    -0.792000000000000E+00     0.924615384615385E+01    -0.954160932108074E+04     0.577192747213802E+04    -0.141681897179402E+04     0.136181151465618E+05     0.590190924990509E+04     0.000000000000000E+00    -0.967159109884781E+04
    -0.924000000000000E+00     0.924615384615385E+01    -0.953181419100334E+04     0.590938937455279E+04    -0.164937337252430E+04     0.137936530193562E+05     0.608360389174194E+04     0.000000000000000E+00    -0.970602870819249E+04
    -0.105600000000000E+01     0.924615384615385E+01    -0.952042631416414E+04     0.606791629340980E+04    -0.188027554689440E+04     0.139940552984447E+05     0.629150916955637E+04     0.000000000000000E+00    -0.974401919031070E+04
    -0.118800000000000E+01     0.924615384615385E+01    -0.950740891756040E+04     0.624747267076132E+04    -0.210929021117867E+04     0.142185207410880E+05     0.652497998560053E+04     0.000000000000000E+00    -0.978491623239961E+04
    -0.132000000000000E+01     0.924615384615385E+01    -0.949272032512241E+04     0.644801820759990E+04    -0.233618238109611E+04     0.144662073753215E+05     0.678334182984824E+04     0.000000000000000E+00    -0.982804394737074E+04
    -0.145200000000000E+01     0.924615384615385E+01    -0.947631395771340E+04     0.666950786385857E+04    -0.256071740924088E+04     0.147362489386735E+05     0.706590413981913E+04     0.000000000000000E+00    -0.987271023367396E+04
    -0.158400000000000E+01     0.924615384615385E+01    -0.945813833312957E+04     0.691189185841038E+04    -0.278266102251291E+04     0.150277698355441E+05     0.737197216316636E+04     0.000000000000000E+00    -0.991821863788555E+04
    -0.171600000000000E+01     0.924615384615385E+01    -0.943813706610013E+04     0.717511566906894E+04    -0.300177935954850E+04     0.153398982807267E+05     0.770085710032872E+04     0.000000000000000E+00    -0.996387849735991E+04
    -0.184800000000000E+01     0.924615384615385E+01    -0.941624886828721E+04     0.745912003258796E+04    -0.321783900815083E+04     0.156717774557477E+05     0.805188445070245E+04     0.000000000000000E+00    -0.100090132864017E+05
    -0.198000000000000E+01     0.924615384615385E+01    -0.939240754828594E+04     0.776384094466170E+04    -0.343060704272063E+04     0.160225746403045E+05     0.842440060172665E+04     0.000000000000000E+00    -0.100529672053509E+05
    -0.211200000000000E+01     0.924615384615385E+01    -0.936654201162442E+04     0.808920965992456E+04    -0.363985106168664E+04     0.163914883873322E+05     0.881777778348053E+04     0.000000000000000E+00    -0.100951101351804E+05
    -0.224400000000000E+01     0.924615384615385E+01    -0.933857626076373E+04     0.843515269195108E+04    -0.384533922493631E+04     0.167777538861465E+05     0.923141756389719E+04     0.000000000000000E+00    -0.101348411327098E+05
    -0.237600000000000E+01     0.924615384615385E+01    -0.930842939509791E+04     0.880159181325653E+04    -0.404684029124628E+04     0.171806467060306E+05     0.966475308622563E+04     0.000000000000000E+00    -0.101715906680670E+05
    -0.250800000000000E+01     0.924615384615385E+01    -0.927601561095397E+04     0.918844405529607E+04    -0.424412365571301E+04     0.175994851369073E+05     0.101172502567802E+05     0.000000000000000E+00    -0.102048218124381E+05
    -0.264000000000000E+01     0.924615384615385E+01    -0.924124420159191E+04     0.959562170846551E+04    -0.443695938718334E+04     0.180336313495092E+05     0.105884080831736E+05     0.000000000000000E+00    -0.102340305763000E+05
     0.000000000000000E+00     0.930897435897436E+01    -0.975347337756882E+04     0.675557118410259E+04    -0.302493236442708E-10     0.143756136788951E+05     0.675557118410259E+04     0.000000000000000E+00    -0.975347337756882E+04
    -0.133500000000000E+00     0.930897435897436E+01    -0.975264092960630E+04     0.676646163666717E+04    -0.239466675517494E+03     0.143896459912932E+05     0.676993229997649E+04     0.000000000000000E+00    -0.975611159291561E+04
    -0.267000000000000E+00     0.930897435897436E+01    -0.975014100105888E+04     0.679913050491014E+04    -0.478686447611361E+03     0.144316779487412E+05     0.681296490990389E+04     0.000000000000000E+00    -0.976397540605264E+04
    -0.400500000000000E+00     0.930897435897436E+01    -0.974596583794713E+04     0.685357032048036E+04    -0.717412452464236E+03     0.145015164843000E+05     0.688451834468090E+04     0.000000000000000E+00    -0.977691386214767E+04
    -0.534000000000000E+00     0.930897435897436E+01    -0.974010251697191E+04     0.692976863612520E+04    -0.955397905471127E+03     0.145988459406707E+05     0.698434652717376E+04     0.000000000000000E+00    -0.979468040802047E+04
    -0.667500000000000E+00     0.930897435897436E+01    -0.973253294551448E+04     0.702770802569124E+04    -0.119239614084565E+04     0.147232368449162E+05     0.711211516482471E+04     0.000000000000000E+00    -0.981694008464794E+04
    -0.801000000000000E+00     0.930897435897436E+01    -0.972323386163645E+04     0.714736608412417E+04    -0.142816065122621E+04     0.148741574260986E+05     0.726741113515642E+04     0.000000000000000E+00    -0.984327891266870E+04
    -0.934500000000000E+00     0.930897435897436E+01    -0.971217683407978E+04     0.728871542746856E+04    -0.166244512728224E+04     0.150509872090700E+05     0.744975347802371E+04     0.000000000000000E+00    -0.987321488463493E+04
    -0.106800000000000E+01     0.930897435897436E+01    -0.969932826226678E+04     0.745172369286808E+04    -0.189500349732038E+04     0.152530319515651E+05     0.765860536051903E+04     0.000000000000000E+00    -0.990620992991773E+04
    -0.120150000000000E+01     0.930897435897436E+01    -0.968464937630012E+04     0.763635353856548E+04    -0.212558996689065E+04     0.154795391909561E+05     0.789338639289969E+04     0.000000000000000E+00    -0.994168223063433E+04
    -0.133500000000000E+01     0.930897435897436E+01    -0.966809623696285E+04     0.784256264390246E+04    -0.235395905839273E+04     0.157297137228284E+05     0.815348473644064E+04     0.000000000000000E+00    -0.997901832950102E+04
    -0.146850000000000E+01     0.930897435897436E+01    -0.964961973571834E+04     0.807030370931971E+04    -0.257986565068206E+04     0.160027324316200E+05     0.843826854156213E+04     0.000000000000000E+00    -0.100175845679608E+05
    -0.160200000000000E+01     0.930897435897436E+01    -0.962916559471033E+04     0.831952445635700E+04    -0.280306501867614E+04     0.162977580171801E+05     0.874709637026961E+04     0.000000000000000E+00    -0.100567375086229E+05
    -0.173550000000000E+01     0.930897435897436E+01    -0.960667436676293E+04     0.859016762765314E+04    -0.302331287296066E+04     0.166139512939698E+05     0.907932637562822E+04     0.000000000000000E+00    -0.100958331147380E+05
    -0.186900000000000E+01     0.930897435897436E+01    -0.958208143538059E+04     0.888217098694597E+04    -0.324036539939572E+04     0.169504818680858E+05     0.943432412075486E+04     0.000000000000000E+00    -0.101342345691895E+05
    -0.200250000000000E+01     0.930897435897436E+01    -0.955531701474813E+04     0.919546731907222E+04    -0.345397929872205E+04     0.173065371114199E+05     0.981146901284841E+04     0.000000000000000E+00    -0.101713187085243E+05
    -0.213600000000000E+01     0.930897435897436E+01    -0.952630614973071E+04     0.952998442996791E+04    -0.366391182616721E+04     0.176813294462168E+05     0.102101594002988E+05     0.000000000000000E+00    -0.102064811200616E+05
    -0.226950000000000E+01     0.930897435897436E+01    -0.949496871587387E+04     0.988564514666778E+04    -0.386992083105176E+04     0.180741020247460E+05     0.106298164323872E+05     0.000000000000000E+00    -0.102391400015933E+05
    -0.240300000000000E+01     0.930897435897436E+01    -0.946121941940347E+04     0.102623673173059E+05    -0.407176479639549E+04     0.184841329382919E+05     0.110698868132968E+05     0.000000000000000E+00    -0.102687389153944E+05
    -0.253650000000000E+01     0.930897435897436E+01    -0.942496779722577E+04     0.106600638111150E+05    -0.426920287852362E+04     0.189107381195421E+05     0.115298445981763E+05     0.000000000000000E+00    -0.102947485842871E+05
    -0.267000000000000E+01     0.930897435897436E+01    -0.938611821692735E+04     0.110786425184272E+05    -0.446199494667298E+04     0.193532731161083E+05     0.120091921824649E+05     0.000000000000000E+00    -0.103166678809650E+05
     0.000000000000000E+00     0.937179487179487E+01    -0.995111513435974E+04     0.812059572302783E+04    -0.303074910291374E-10     0.156773004791508E+05     0.812059572302783E+04     0.000000000000000E+00    -0.995111513435974E+04
    -0.135000000000000E+00     0.937179487179487E+01    -0.995018101702836E+04     0.813179197480853E+04    -0.241325493718131E+03     0.156913880557811E+05     0.813501217783820E+04     0.000000000000000E+00    -0.995340122005804E+04
    -0.270000000000000E+00     0.937179487179487E+01    -0.994737594155425E+04     0.816537811717010E+04    -0.482393142746157E+03     0.157335909184111E+05     0.817821649169636E+04     0.000000000000000E+00    -0.996021431608052E+04
    -0.405000000000000E+00     0.937179487179487E+01    -0.994269173749743E+04     0.822134631117163E+04    -0.722945144275871E+03     0.158037310543809E+05     0.825007474464792E+04     0.000000000000000E+00    -0.997142017097372E+04
    -0.540000000000000E+00     0.937179487179487E+01    -0.993611478745794E+04     0.829968349191110E+04    -0.962723779262706E+03     0.159015169790845E+05     0.835036776498002E+04     0.000000000000000E+00    -0.998679906052687E+04
    -0.675000000000000E+00     0.937179487179487E+01    -0.992762602707587E+04     0.840037136852610E+04    -0.120147145430760E+04     0.160265512217837E+05     0.847879690838129E+04     0.000000000000000E+00    -0.100060515669311E+05
    -0.810000000000000E+00     0.937179487179487E+01    -0.991720094503129E+04     0.852338642419333E+04    -0.143893074353883E+04     0.161783402014927E+05     0.863499165219269E+04     0.000000000000000E+00    -0.100288061730307E+05
    -0.945000000000000E+00     0.937179487179487E+01    -0.990480958304431E+04     0.866869991612877E+04    -0.167484443049386E+04     0.163563059617119E+05     0.881851857246264E+04     0.000000000000000E+00    -0.100546282393782E+05
    -0.108000000000000E+01     0.937179487179487E+01    -0.989041653587505E+04     0.883627787558781E+04    -0.190895555000115E+04     0.165597991726849E+05     0.902889122790384E+04     0.000000000000000E+00    -0.100830298881911E+05
    -0.121500000000000E+01     0.937179487179487E+01    -0.987398095132366E+04     0.902608110786488E+04    -0.214100743006202E+04     0.167881127993518E+05     0.926558047328333E+04     0.000000000000000E+00    -0.101134803167421E+05
    -0.135000000000000E+01     0.937179487179487E+01    -0.985545653023031E+04     0.923806519229384E+04    -0.237074373373248E+04     0.170404958670665E+05     0.952802475977006E+04     0.000000000000000E+00    -0.101454160977065E+05
    -0.148500000000000E+01     0.937179487179487E+01    -0.983479152647517E+04     0.947218048224779E+04    -0.259790850100503E+04     0.173161668258405E+05     0.981564004220730E+04     0.000000000000000E+00    -0.101782510864347E+05
    -0.162000000000000E+01     0.937179487179487E+01    -0.981192874697845E+04     0.972837210513899E+04    -0.282224619069055E+04     0.176143261055922E+05     0.101278289924765E+05     0.000000000000000E+00    -0.102113856343160E+05
    -0.175500000000000E+01     0.937179487179487E+01    -0.978680555170037E+04     0.100065799624193E+05    -0.304350172230010E+04     0.179341675575354E+05     0.104639893036239E+05     0.000000000000000E+00    -0.102442148929050E+05
    -0.189000000000000E+01     0.937179487179487E+01    -0.975935385364118E+04     0.103067387295795E+05    -0.326142051792677E+04     0.182748885797876E+05     0.108235209524214E+05     0.000000000000000E+00    -0.102761360764831E+05
    -0.202500000000000E+01     0.937179487179487E+01    -0.972950011884112E+04     0.106287778561498E+05    -0.347574854412749E+04     0.186356988202339E+05     0.112058323621145E+05     0.000000000000000E+00    -0.103065546248058E+05
    -0.216000000000000E+01     0.937179487179487E+01    -0.969716536638049E+04     0.109726215656997E+05    -0.368623235380491E+04     0.190158274311428E+05     0.116103454683933E+05     0.000000000000000E+00    -0.103348892690741E+05
    -0.229500000000000E+01     0.937179487179487E+01    -0.966226516837958E+04     0.113381888558378E+05    -0.389261912808921E+04     0.194145289151732E+05     0.120364997385698E+05     0.000000000000000E+00    -0.103605760511116E+05
    -0.243000000000000E+01     0.937179487179487E+01    -0.962470964999871E+04     0.117253934982124E+05    -0.409465671821990E+04     0.198310876506349E+05     0.124837552267858E+05     0.000000000000000E+00    -0.103830713785721E+05
    -0.256500000000000E+01     0.937179487179487E+01    -0.958440348943822E+04     0.121341440385104E+05    -0.429209368742774E+04     0.202648212162035E+05     0.129515947682714E+05     0.000000000000000E+00    -0.104018542191992E+05
    -0.270000000000000E+01     0.937179487179487E+01    -0.954124591793846E+04     0.125643437964587E+05    -0.448467935281649E+04     0.207150826538168E+05     0.134395254253576E+05     0.000000000000000E+00    -0.104164275468373E+05
     0.000000000000000E+00     0.943461538461538E+01    -0.101618243274573E+05     0.948602477254134E+04    -0.299811584406533E-10     0.170188911786827E+05     0.948602477254134E+04     0.000000000000000E+00    -0.101618243274573E+05
    -0.136500000000000E+00     0.943461538461538E+01    -0.101607828180306E+05     0.949753284398353E+04    -0.243086998422657E+03     0.170330349614790E+05     0.950053830269301E+04     0.000000000000000E+00    -0.101637882767401E+05
    -0.273000000000000E+00     0.943461538461538E+01    -0.101576554215767E+05     0.953205431706225E+04    -0.485904831669227E+03     0.170754108851208E+05     0.954403823628969E+04     0.000000000000000E+00    -0.101696393408042E+05
    -0.409500000000000E+00     0.943461538461538E+01    -0.101524335335744E+05     0.958958096803472E+04    -0.728184378824569E+03     0.171458540369861E+05     0.961640361246478E+04     0.000000000000000E+00    -0.101792561780044E+05
    -0.546000000000000E+00     0.943461538461538E+01    -0.101451028131548E+05     0.967009909066217E+04    -0.969656607495291E+03     0.172440940269487E+05     0.971743613749166E+04     0.000000000000000E+00    -0.101924398599843E+05
    -0.682500000000000E+00     0.943461538461538E+01    -0.101356431831017E+05     0.977358949621092E+04    -0.121005261807066E+04     0.173697614302213E+05     0.984686494936191E+04     0.000000000000000E+00    -0.102089186362527E+05
    -0.819000000000000E+00     0.943461538461538E+01    -0.101240288298513E+05     0.990002751345155E+04    -0.144910368798349E+04     0.175223963250705E+05     0.100043529145292E+05     0.000000000000000E+00    -0.102283542309290E+05
    -0.955500000000000E+00     0.943461538461538E+01    -0.101102282034923E+05     0.100493829886597E+05    -0.168654131597105E+04     0.177014584972688E+05     0.101895041274073E+05     0.000000000000000E+00    -0.102503493422399E+05
    -0.109200000000000E+01     0.943461538461538E+01    -0.100942040177657E+05     0.102216202856151E+05    -0.192209726633592E+04     0.179063388294335E+05     0.104018722447674E+05     0.000000000000000E+00    -0.102744559769180E+05
    -0.122850000000000E+01     0.943461538461538E+01    -0.100759132500654E+05     0.104166982856026E+05    -0.215550361320690E+04     0.181363713778032E+05     0.106409692790791E+05     0.000000000000000E+00    -0.103001842435420E+05
    -0.136500000000000E+01     0.943461538461538E+01    -0.100553071414374E+05     0.106345703874113E+05    -0.238649278479987E+04     0.183908456584195E+05     0.109062744940451E+05     0.000000000000000E+00    -0.103270112480713E+05
    -0.150150000000000E+01     0.943461538461538E+01    -0.100323311965804E+05     0.108751845073348E+05    -0.261479760767875E+04     0.186690187127049E+05     0.111972430864644E+05     0.000000000000000E+00    -0.103543897757099E+05
    -0.163800000000000E+01     0.943461538461538E+01    -0.100069251838454E+05     0.111384830791719E+05    -0.284015135101628E+04     0.189701265906403E+05     0.115133143940137E+05     0.000000000000000E+00    -0.103817564986872E+05
    -0.177450000000000E+01     0.943461538461538E+01    -0.997902313523620E+04     0.114244030542255E+05    -0.306228777085500E+04     0.192933949692101E+05     0.118539194312764E+05     0.000000000000000E+00    -0.104085395122871E+05
    -0.191100000000000E+01     0.943461538461538E+01    -0.994855334640875E+04     0.117328759013033E+05    -0.328094115436808E+04     0.196380487062211E+05     0.122184876198371E+05     0.000000000000000E+00    -0.104341650649425E+05
    -0.204750000000000E+01     0.943461538461538E+01    -0.991543837667169E+04     0.120638276067176E+05    -0.349584636412026E+04     0.200033202082047E+05     0.126064526373565E+05     0.000000000000000E+00    -0.104580634073106E+05
    -0.218400000000000E+01     0.943461538461538E+01    -0.987959504898608E+04     0.124171786742852E+05    -0.370673888232867E+04     0.203884565609861E+05     0.130172573617525E+05     0.000000000000000E+00    -0.104796737364533E+05
    -0.232050000000000E+01     0.943461538461538E+01    -0.984093444996549E+04     0.127928441253277E+05    -0.391335485512379E+04     0.207927254297215E+05     0.134503579280640E+05     0.000000000000000E+00    -0.104984482527018E+05
    -0.245700000000000E+01     0.943461538461538E+01    -0.979936192987597E+04     0.131907334986711E+05    -0.411543113681027E+04     0.212154197805551E+05     0.139052269467531E+05     0.000000000000000E+00    -0.105138553779579E+05
    -0.259350000000000E+01     0.943461538461538E+01    -0.975477710263604E+04     0.136107508506464E+05    -0.431270533412788E+04     0.216558615087255E+05     0.143813559536125E+05     0.000000000000000E+00    -0.105253822056022E+05
    -0.273000000000000E+01     0.943461538461538E+01    -0.970707384581674E+04     0.140527947550887E+05    -0.450491585051235E+04     0.221134040790904E+05     0.148782571742693E+05     0.000000000000000E+00    -0.105325362649974E+05
     0.000000000000000E+00     0.949743589743590E+01    -0.103861428825270E+05     0.108518949803987E+05    -0.292599142925941E-10     0.183941545186091E+05     0.108518949803987E+05     0.000000000000000E+00    -0.103861428825270E+05
    -0.138000000000000E+00     0.949743589743590E+01    -0.103849880640496E+05     0.108637209808108E+05    -0.244746900732202E+03     0.184083602336683E+05     0.108665396508952E+05     0.000000000000000E+00    -0.103878067341340E+05
    -0.276000000000000E+00     0.949743589743590E+01    -0.103815205896927E+05     0.108991961076639E+05    -0.489212926819004E+03     0.184509257820209E+05     0.109104364688533E+05     0.000000000000000E+00    -0.103927609508821E+05
    -0.414000000000000E+00     0.949743589743590E+01    -0.103757314026826E+05     0.109583117378095E+05    -0.733117250361912E+03     0.185216975520695E+05     0.109834747003366E+05     0.000000000000000E+00    -0.104008943652097E+05
    -0.552000000000000E+00     0.949743589743590E+01    -0.103676054083965E+05     0.110410534993327E+05    -0.976179136956087E+03     0.186204233941041E+05     0.110854725663100E+05     0.000000000000000E+00    -0.104120244753738E+05
    -0.690000000000000E+00     0.949743589743590E+01    -0.103571214743623E+05     0.111474012715530E+05    -0.121811799243722E+04     0.187467582202137E+05     0.112161812567964E+05     0.000000000000000E+00    -0.104259014596056E+05
    -0.828000000000000E+00     0.949743589743590E+01    -0.103442524302588E+05     0.112773291850240E+05    -0.145865340962839E+04     0.189002714537539E+05     0.113752902608936E+05     0.000000000000000E+00    -0.104422135061284E+05
    -0.966000000000000E+00     0.949743589743590E+01    -0.103289650679157E+05     0.114308056215335E+05    -0.169750521508688E+04     0.190804559788334E+05     0.115624337545103E+05     0.000000000000000E+00    -0.104605932008926E+05
    -0.110400000000000E+01     0.949743589743590E+01    -0.103112201413136E+05     0.116077932141033E+05    -0.193439351585104E+04     0.192867381926540E+05     0.117771977541602E+05     0.000000000000000E+00    -0.104806246813705E+05
    -0.124200000000000E+01     0.949743589743590E+01    -0.102909723665838E+05     0.118082488469893E+05    -0.216903874618713E+04     0.195184887455896E+05     0.120191277341844E+05     0.000000000000000E+00    -0.105018512537789E+05
    -0.138000000000000E+01     0.949743589743590E+01    -0.102681704220085E+05     0.120321236556818E+05    -0.240116171433617E+04     0.197750335638508E+05     0.122877364146870E+05     0.000000000000000E+00    -0.105237831810137E+05
    -0.151800000000000E+01     0.949743589743590E+01    -0.102427569480207E+05     0.122793630269048E+05    -0.263048364926075E+04     0.200556647830712E+05     0.125825114546455E+05     0.000000000000000E+00    -0.105459053757614E+05
    -0.165600000000000E+01     0.949743589743590E+01    -0.102146685472045E+05     0.125499065986169E+05    -0.285672624739193E+04     0.203596512721636E+05     0.129029228242865E+05     0.000000000000000E+00    -0.105676847728742E+05
    -0.179400000000000E+01     0.949743589743590E+01    -0.101838357842945E+05     0.128436882600104E+05    -0.307961171937603E+04     0.206862484886162E+05     0.132484296776727E+05     0.000000000000000E+00    -0.105885772019569E+05
    -0.193200000000000E+01     0.949743589743590E+01    -0.101501831861764E+05     0.131606361515121E+05    -0.329886283682150E+04     0.210347074726123E+05     0.136184865956494E+05     0.000000000000000E+00    -0.106080336303137E+05
    -0.207000000000000E+01     0.949743589743590E+01    -0.101136292418866E+05     0.135006726647827E+05    -0.351420297904577E+04     0.214042828523976E+05     0.140125491167575E+05     0.000000000000000E+00    -0.106255056938615E+05
    -0.220800000000000E+01     0.949743589743590E+01    -0.100740864026125E+05     0.138637144427171E+05    -0.372535617982208E+04     0.217942397929636E+05     0.144300785164323E+05     0.000000000000000E+00    -0.106404504763277E+05
    -0.234600000000000E+01     0.949743589743590E+01    -0.100314610816923E+05     0.142496723794444E+05    -0.393204717412632E+04     0.222038598715389E+05     0.148705458308829E+05     0.000000000000000E+00    -0.106523345331307E+05
    -0.248400000000000E+01     0.949743589743590E+01    -0.998565365461481E+04     0.146584516203277E+05    -0.413400144488389E+04     0.226324459051123E+05     0.153334351506493E+05     0.000000000000000E+00    -0.106606371849364E+05
    -0.262200000000000E+01     0.949743589743590E+01    -0.993655845902005E+04     0.150899515619643E+05    -0.433094526971654E+04     0.230793257869252E+05     0.158182462299232E+05     0.000000000000000E+00    -0.106648531269789E+05
    -0.276000000000000E+01     0.949743589743590E+01    -0.988406379469869E+04     0.155440658521855E+05    -0.452260576768921E+04     0.235438554110528E+05     0.163244964718722E+05     0.000000000000000E+00    -0.106644944143854E+05
     0.000000000000000E+00     0.956025641025641E+01    -0.106246297473781E+05     0.122182437661729E+05    -0.281333471340731E-10     0.197985492947664E+05     0.122182437661729E+05     0.000000000000000E+00    -0.106246297473781E+05
    -0.139500000000000E+00     0.956025641025641E+01    -0.106233555049167E+05     0.122303938950089E+05    -0.246300826397738E+03     0.198128249276575E+05     0.122330480351048E+05     0.000000000000000E+00    -0.106260096450126E+05
    -0.279000000000000E+00     0.956025641025641E+01    -0.106195296016127E+05     0.122668412689978E+05    -0.492308669763052E+03     0.198556035197043E+05     0.122774264239002E+05     0.000000000000000E+00    -0.106301147565151E+05
    -0.418500000000000E+00     0.956025641025641E+01    -0.106131425097071E+05     0.123275768505834E+05    -0.737730596406843E+03     0.199267411824319E+05     0.123512764022664E+05     0.000000000000000E+00    -0.106368420613902E+05
    -0.558000000000000E+00     0.956025641025641E+01    -0.106041783496018E+05     0.124125855771717E+05    -0.982273771326518E+03     0.200260014907196E+05     0.124544294633968E+05     0.000000000000000E+00    -0.106460222358269E+05
    -0.697500000000000E+00     0.956025641025641E+01    -0.105926148898589E+05     0.125218463611310E+05    -0.122564550754928E+04     0.201530603988725E+05     0.125866545688638E+05     0.000000000000000E+00    -0.106574230975918E+05
    -0.837000000000000E+00     0.956025641025641E+01    -0.105784235472017E+05     0.126553320897920E+05    -0.146755331547542E+04     0.203075128025200E+05     0.127476627408565E+05     0.000000000000000E+00    -0.106707541982661E+05
    -0.976500000000000E+00     0.956025641025641E+01    -0.105615693865136E+05     0.128130096254482E+05    -0.170770495222153E+04     0.204888804571830E+05     0.129371125945505E+05     0.000000000000000E+00    -0.106856723556160E+05
    -0.111600000000000E+01     0.956025641025641E+01    -0.105420111208393E+05     0.129948398053549E+05    -0.194580847096383E+04     0.206966209222021E+05     0.131546165742015E+05     0.000000000000000E+00    -0.107017878896859E+05
    -0.125550000000000E+01     0.956025641025641E+01    -0.105197011113836E+05     0.132007774417301E+05    -0.218157227028140E+04     0.209301371800381E+05     0.133997476445563E+05     0.000000000000000E+00    -0.107186713142099E+05
    -0.139500000000000E+01     0.956025641025641E+01    -0.104945853675125E+05     0.134307713217543E+05    -0.241470514349946E+04     0.211887875847364E+05     0.136720461934850E+05     0.000000000000000E+00    -0.107358602392432E+05
    -0.153450000000000E+01     0.956025641025641E+01    -0.104666035467521E+05     0.136847642075701E+05    -0.264491632803264E+04     0.214718958166245E+05     0.139710269199807E+05     0.000000000000000E+00    -0.107528662591627E+05
    -0.167400000000000E+01     0.956025641025641E+01    -0.104356889547898E+05     0.139626928362829E+05    -0.287191555472822E+04     0.217787605586888E+05     0.142961855104864E+05     0.000000000000000E+00    -0.107691816289933E+05
    -0.181350000000000E+01     0.956025641025641E+01    -0.104017685454731E+05     0.142644879199601E+05    -0.309541309720943E+04     0.221086646585119E+05     0.146470049420863E+05     0.000000000000000E+00    -0.107842855675994E+05
    -0.195300000000000E+01     0.956025641025641E+01    -0.103647629208107E+05     0.145900741456317E+05    -0.331511982121871E+04     0.224608835931109E+05     0.150229612897448E+05     0.000000000000000E+00    -0.107976500649237E+05
    -0.209250000000000E+01     0.956025641025641E+01    -0.103245863309715E+05     0.149393701752901E+05    -0.353074723396096E+04     0.228346931079777E+05     0.154235289532250E+05     0.000000000000000E+00    -0.108087451089063E+05
    -0.223200000000000E+01     0.956025641025641E+01    -0.102811466742853E+05     0.153122886458901E+05    -0.374200753344683E+04     0.232293759524816E+05     0.158481852550435E+05     0.000000000000000E+00    -0.108170432834388E+05
    -0.237150000000000E+01     0.956025641025641E+01    -0.102343454972427E+05     0.157087361693487E+05    -0.394861365783596E+04     0.236442276789458E+05     0.162964143920572E+05     0.000000000000000E+00    -0.108220237199511E+05
    -0.251100000000000E+01     0.956025641025641E+01    -0.101840779944947E+05     0.161286133325456E+05    -0.415027933478027E+04     0.240785615106161E+05     0.167677107490693E+05     0.000000000000000E+00    -0.108231754110184E+05
    -0.265050000000000E+01     0.956025641025641E+01    -0.101302330088532E+05     0.165718146973228E+05    -0.434671913076723E+04     0.245317123137545E+05     0.172615816028602E+05     0.000000000000000E+00    -0.108199999143907E+05
    -0.279000000000000E+01     0.956025641025641E+01    -0.100726930312907E+05     0.170382288004843E+05    -0.453764850046310E+04     0.250030397313148E+05     0.177775492594871E+05     0.000000000000000E+00    -0.108120134902934E+05
     0.000000000000000E+00     0.962307692307692E+01    -0.108778611242733E+05     0.135851093265952E+05    -0.265910476922449E-10     0.212287538651541E+05     0.135851093265952E+05     0.000000000000000E+00    -0.108778611242733E+05
    -0.141000000000000E+00     0.962307692307692E+01    -0.108764611411373E+05     0.135975898747484E+05    -0.247744315182166E+03     0.212431082231266E+05     0.136000974676942E+05     0.000000000000000E+00    -0.108789687340831E+05
    -0.282000000000000E+00     0.962307692307692E+01    -0.108722578523791E+05     0.136350283634177E+05    -0.495183129920639E+03     0.212861258210102E+05     0.136450297280203E+05     0.000000000000000E+00    -0.108822592169817E+05
    -0.423000000000000E+00     0.962307692307692E+01    -0.108652412399487E+05     0.136974153252323E+05    -0.742010995825578E+03     0.213576711422474E+05     0.137198102475373E+05     0.000000000000000E+00    -0.108876361622537E+05
    -0.564000000000000E+00     0.962307692307692E+01    -0.108553946070960E+05     0.137847349812407E+05    -0.987922568614710E+03     0.214575213237492E+05     0.138242813271562E+05     0.000000000000000E+00    -0.108949409530115E+05
    -0.705000000000000E+00     0.962307692307692E+01    -0.108426945783708E+05     0.138969652409110E+05    -0.123261266016716E+04     0.215853705136226E+05     0.139582264323541E+05     0.000000000000000E+00    -0.109039557698140E+05
    -0.846000000000000E+00     0.962307692307692E+01    -0.108271110996228E+05     0.140340777021306E+05    -0.147577629057725E+04     0.217408357050554E+05     0.141213742106258E+05     0.000000000000000E+00    -0.109144076081181E+05
    -0.987000000000000E+00     0.962307692307692E+01    -0.108086074380017E+05     0.141960376512064E+05    -0.171710874020829E+04     0.219234638040474E+05     0.143134033529504E+05     0.000000000000000E+00    -0.109259731397457E+05
    -0.112800000000000E+01     0.962307692307692E+01    -0.107871401819573E+05     0.143828040628648E+05    -0.195630560174637E+04     0.221327396513395E+05     0.145339481039192E+05     0.000000000000000E+00    -0.109382842230117E+05
    -0.126900000000000E+01     0.962307692307692E+01    -0.107626592412389E+05     0.145943296002513E+05    -0.219306283225419E+04     0.223680947003600E+05     0.147826042130702E+05     0.000000000000000E+00    -0.109509338540578E+05
    -0.141000000000000E+01     0.962307692307692E+01    -0.107351078468963E+05     0.148305606149315E+05    -0.242707680522483E+04     0.226289160527909E+05     0.150589351208523E+05     0.000000000000000E+00    -0.109634823528172E+05
    -0.155100000000000E+01     0.962307692307692E+01    -0.107044225512789E+05     0.150914371468897E+05    -0.265804436263555E+04     0.229145555693852E+05     0.153624781849188E+05     0.000000000000000E+00    -0.109754635893079E+05
    -0.169200000000000E+01     0.962307692307692E+01    -0.106705332280361E+05     0.153768929245301E+05    -0.288566286700159E+04     0.232243388027349E+05     0.156927507737056E+05     0.000000000000000E+00    -0.109863910772116E+05
    -0.183300000000000E+01     0.962307692307692E+01    -0.106333630721173E+05     0.156868553646763E+05    -0.310963025342999E+04     0.235575735369175E+05     0.160492560816864E+05     0.000000000000000E+00    -0.109957637891275E+05
    -0.197400000000000E+01     0.962307692307692E+01    -0.105928285997719E+05     0.160212455725711E+05    -0.332964508167336E+04     0.239135577623993E+05     0.164314885514364E+05     0.000000000000000E+00    -0.110030715786371E+05
    -0.211500000000000E+01     0.962307692307692E+01    -0.105488396485490E+05     0.163799783418768E+05    -0.354540658818370E+04     0.242915869595406E+05     0.168389388190978E+05     0.000000000000000E+00    -0.110078001257700E+05
    -0.225600000000000E+01     0.962307692307692E+01    -0.105012993772979E+05     0.167629621546752E+05    -0.375661473816616E+04     0.246909606074833E+05     0.172710981298773E+05     0.000000000000000E+00    -0.110094353524999E+05
    -0.239700000000000E+01     0.962307692307692E+01    -0.104501042661678E+05     0.171700991814677E+05    -0.396297027763290E+04     0.251109878747572E+05     0.177274621972481E+05     0.000000000000000E+00    -0.110074672819481E+05
    -0.253800000000000E+01     0.962307692307692E+01    -0.103951441166077E+05     0.176012852811749E+05    -0.416417478545683E+04     0.255509924821168E+05     0.182075345026092E+05     0.000000000000000E+00    -0.110013933380419E+05
    -0.267900000000000E+01     0.962307692307692E+01    -0.103363020513667E+05     0.180564100011369E+05    -0.435993072542546E+04     0.260103167561036E+05     0.187108290507727E+05     0.000000000000000E+00    -0.109907211010026E+05
    -0.282000000000000E+01     0.962307692307692E+01    -0.102734545144939E+05     0.185353565771132E+05    -0.454994149829464E+04     0.264883249134542E+05     0.192368726108056E+05     0.000000000000000E+00    -0.109749705481862E+05
     0.000000000000000E+00     0.968589743589744E+01    -0.111464307022388E+05     0.149525306408964E+05    -0.246226109150032E-10     0.226823375466156E+05     0.149525306408964E+05     0.000000000000000E+00    -0.111464307022388E+05
    -0.142500000000000E+00     0.968589743589744E+01    -0.111448984561703E+05     0.149653479920044E+05    -0.249072820222400E+03     0.226967794557201E+05     0.149677237499533E+05     0.000000000000000E+00    -0.111472742141192E+05
    -0.285000000000000E+00     0.968589743589744E+01    -0.111402982085543E+05     0.150037967409936E+05    -0.497827203285328E+03     0.227400621491844E+05     0.150132727672143E+05     0.000000000000000E+00    -0.111497742347750E+05
    -0.427500000000000E+00     0.968589743589744E+01    -0.111326194311594E+05     0.150678669748604E+05    -0.745944766911517E+03     0.228120573387720E+05     0.150890873172516E+05     0.000000000000000E+00    -0.111538397735506E+05
    -0.570000000000000E+00     0.968589743589744E+01    -0.111218445769329E+05     0.151575421719312E+05    -0.993107238587997E+03     0.229125538876367E+05     0.151950185983870E+05     0.000000000000000E+00    -0.111593210033886E+05
    -0.712500000000000E+00     0.968589743589744E+01    -0.111079490800012E+05     0.152727992018634E+05    -0.123899651044827E+04     0.230412617086485E+05     0.153308620378231E+05     0.000000000000000E+00    -0.111660119159608E+05
    -0.855000000000000E+00     0.968589743589744E+01    -0.110909013556697E+05     0.154136083256452E+05    -0.148329469415447E+04     0.231978169968938E+05     0.154963608532435E+05     0.000000000000000E+00    -0.111736538832680E+05
    -0.997500000000000E+00     0.968589743589744E+01    -0.110706628004228E+05     0.155799331955952E+05    -0.172568417577954E+04     0.233817885908036E+05     0.156912103791672E+05     0.000000000000000E+00    -0.111819399839948E+05
    -0.114000000000000E+01     0.968589743589744E+01    -0.110471877919239E+05     0.157717308553628E+05    -0.196584767068936E+04     0.235926852231782E+05     0.159150629938796E+05     0.000000000000000E+00    -0.111905199304406E+05
    -0.128250000000000E+01     0.968589743589744E+01    -0.110204236890151E+05     0.159889517399282E+05    -0.220346827842491E+04     0.238299634054788E+05     0.161675334710031E+05     0.000000000000000E+00    -0.111990054200900E+05
    -0.142500000000000E+01     0.968589743589744E+01    -0.109903108317179E+05     0.162315396756022E+05    -0.243822953758446E+04     0.240930356859509E+05     0.164482045785338E+05     0.000000000000000E+00    -0.112069757346495E+05
    -0.156750000000000E+01     0.968589743589744E+01    -0.109567825412325E+05     0.164994318800262E+05    -0.266981548070571E+04     0.243812790330174E+05     0.167566327563697E+05     0.000000000000000E+00    -0.112139834175761E+05
    -0.171000000000000E+01     0.968589743589744E+01    -0.109197651199381E+05     0.167925589621723E+05    -0.289791068914792E+04     0.246940431175034E+05     0.170923537192377E+05     0.000000000000000E+00    -0.112195598770035E+05
    -0.185250000000000E+01     0.968589743589744E+01    -0.108791778513929E+05     0.171108449223434E+05    -0.312220034797411E+04     0.250306582976791E+05     0.174548878533673E+05     0.000000000000000E+00    -0.112232207824168E+05
    -0.199500000000000E+01     0.968589743589744E+01    -0.108349330003342E+05     0.174542071521729E+05    -0.334237030083321E+04     0.253904431466667E+05     0.178437453000224E+05     0.000000000000000E+00    -0.112244711481836E+05
    -0.213750000000000E+01     0.968589743589744E+01    -0.107869358126779E+05     0.178225564346253E+05    -0.355810710484220E+04     0.257727113994425E+05     0.182584306449913E+05     0.000000000000000E+00    -0.112228100230440E+05
    -0.228000000000000E+01     0.968589743589744E+01    -0.107350845155194E+05     0.182157969439950E+05    -0.376909808546829E+04     0.261767782338693E+05     0.186984471585594E+05     0.000000000000000E+00    -0.112177347300838E+05
    -0.242250000000000E+01     0.968589743589744E+01    -0.106792703171327E+05     0.186338262459078E+05    -0.397503139141106E+04     0.266019658348724E+05     0.191633005539677E+05     0.000000000000000E+00    -0.112087446251926E+05
    -0.256500000000000E+01     0.968589743589744E+01    -0.106193774069709E+05     0.190765352973199E+05    -0.417559604948463E+04     0.270476082215532E+05     0.196525022529353E+05     0.000000000000000E+00    -0.111953443625863E+05
    -0.270750000000000E+01     0.968589743589744E+01    -0.105552829556660E+05     0.195438084465183E+05    -0.437048201949982E+04     0.275130553428917E+05     0.201655721639793E+05     0.000000000000000E+00    -0.111770466731270E+05
    -0.285000000000000E+01     0.968589743589744E+01    -0.104868571150291E+05     0.200355234331202E+05    -0.455938024914631E+04     0.279976764683610E+05     0.207020409928117E+05     0.000000000000000E+00    -0.111533746747207E+05
     0.000000000000000E+00     0.974871794871795E+01    -0.114309498893736E+05     0.163205474761477E+05    -0.222176380136861E-10     0.241575297922107E+05     0.163205474761477E+05     0.000000000000000E+00    -0.114309498893736E+05
    -0.144000000000000E+00     0.974871794871795E+01    -0.114292786487073E+05     0.163337081079081E+05    -0.250281707391445E+03     0.241720676632189E+05     0.163359641995762E+05     0.000000000000000E+00    -0.114315347403754E+05
    -0.288000000000000E+00     0.974871794871795E+01    -0.114242612404085E+05     0.163731865448975E+05    -0.500231611147548E+03     0.242156403579244E+05     0.163821855970329E+05     0.000000000000000E+00    -0.114332602925439E+05
    -0.432000000000000E+00     0.974871794871795E+01    -0.114158866055777E+05     0.164389724122416E+05    -0.749517965465161E+03     0.242881258534677E+05     0.164591258446950E+05     0.000000000000000E+00    -0.114360400380312E+05
    -0.576000000000000E+00     0.974871794871795E+01    -0.114041363127158E+05     0.165310484184826E+05    -0.997809140205406E+03     0.243893231896773E+05     0.165666435318762E+05     0.000000000000000E+00    -0.114397314261095E+05
    -0.720000000000000E+00     0.974871794871795E+01    -0.113889845577240E+05     0.166493903555797E+05    -0.124477367872585E+04     0.245189559862876E+05     0.167045440364729E+05     0.000000000000000E+00    -0.114441382386172E+05
    -0.864000000000000E+00     0.974871794871795E+01    -0.113703981639037E+05     0.167939670989096E+05    -0.149008035571267E+04     0.246766771748245E+05     0.168725827193944E+05     0.000000000000000E+00    -0.114490137843885E+05
    -0.100800000000000E+01     0.974871794871795E+01    -0.113483365819567E+05     0.169647406072652E+05    -0.173339823501274E+04     0.248620747688007E+05     0.170704688178243E+05     0.000000000000000E+00    -0.114540647925158E+05
    -0.115200000000000E+01     0.974871794871795E+01    -0.113227518899853E+05     0.171616659228567E+05    -0.197439672746587E+04     0.250746784662438E+05     0.172978698972639E+05     0.000000000000000E+00    -0.114589558643924E+05
    -0.129600000000000E+01     0.974871794871795E+01    -0.112935887934919E+05     0.173846911713113E+05    -0.221274564873688E+04     0.253139668615372E+05     0.175544167110969E+05     0.000000000000000E+00    -0.114633143332774E+05
    -0.144000000000000E+01     0.974871794871795E+01    -0.112607846253793E+05     0.176337575616731E+05    -0.244811527714778E+04     0.255793750391171E+05     0.178397083138722E+05     0.000000000000000E+00    -0.114667353775784E+05
    -0.158400000000000E+01     0.974871794871795E+01    -0.112242693459508E+05     0.179087993864030E+05    -0.268017641150991E+04     0.258703023287109E+05     0.181533172798675E+05     0.000000000000000E+00    -0.114687872394152E+05
    -0.172800000000000E+01     0.974871794871795E+01    -0.111839655429098E+05     0.182097440213791E+05    -0.290860042895609E+04     0.261861200187318E+05     0.184947948904783E+05     0.000000000000000E+00    -0.114690164120089E+05
    -0.187200000000000E+01     0.974871794871795E+01    -0.111397884313601E+05     0.185365119258963E+05    -0.313305934277277E+04     0.265261788488322E+05     0.188636761709409E+05     0.000000000000000E+00    -0.114669526764047E+05
    -0.201600000000000E+01     0.974871794871795E+01    -0.110916458538059E+05     0.188890166426665E+05    -0.335322586023218E+04     0.268898161319388E+05     0.192594846770710E+05     0.000000000000000E+00    -0.114621138882105E+05
    -0.216000000000000E+01     0.974871794871795E+01    -0.110394382801518E+05     0.192671647978184E+05    -0.356877344042446E+04     0.272763623878596E+05     0.196817369543798E+05     0.000000000000000E+00    -0.114540104367131E+05
    -0.230400000000000E+01     0.974871794871795E+01    -0.109830588077024E+05     0.196708561008979E+05    -0.377937635208984E+04     0.276851474025678E+05     0.201299466136053E+05     0.000000000000000E+00    -0.114421493204098E+05
    -0.244800000000000E+01     0.974871794871795E+01    -0.109223931611631E+05     0.200999833448679E+05    -0.398470973145077E+04     0.281155056577011E+05     0.206036279871530E+05     0.000000000000000E+00    -0.114260378034483E+05
    -0.259200000000000E+01     0.974871794871795E+01    -0.108573196926393E+05     0.205544324061077E+05    -0.418444964004405E+04     0.285667811023481E+05     0.211022993492990E+05     0.000000000000000E+00    -0.114051866358306E+05
    -0.273600000000000E+01     0.974871794871795E+01    -0.107877093816368E+05     0.210340822444142E+05    -0.437827312255300E+04     0.290383312629468E+05     0.216254856987218E+05     0.000000000000000E+00    -0.113791128359444E+05
    -0.288000000000000E+01     0.974871794871795E+01    -0.107134258350618E+05     0.215388049030008E+05    -0.456585826463963E+04     0.295295307066570E+05     0.221727211147299E+05     0.000000000000000E+00    -0.113473420467909E+05
     0.000000000000000E+00     0.981153846153846E+01    -0.117320480451597E+05     0.176892003926018E+05    -0.193657385057742E-10     0.256530565576507E+05     0.176892003926018E+05     0.000000000000000E+00    -0.117320480451597E+05
    -0.145500000000000E+00     0.981153846153846E+01    -0.117302308649518E+05     0.177027108780989E+05    -0.251366254660482E+03     0.256676981651290E+05     0.177048574656434E+05     0.000000000000000E+00    -0.117323774524963E+05
    -0.291000000000000E+00     0.981153846153846E+01    -0.117247754541073E+05     0.177432387167873E+05    -0.502386898817185E+03     0.257115839103973E+05     0.177518011967216E+05     0.000000000000000E+00    -0.117333379340416E+05
    -0.436500000000000E+00     0.981153846153846E+01    -0.117156702019645E+05     0.178107730552586E+05    -0.752716382874016E+03     0.257845972263232E+05     0.178299495679688E+05     0.000000000000000E+00    -0.117348467146747E+05
    -0.582000000000000E+00     0.981153846153846E+01    -0.117028957574204E+05     0.179052958044989E+05    -0.100200927905016E+04     0.258865460238980E+05     0.179391673535724E+05     0.000000000000000E+00    -0.117367673064938E+05
    -0.727500000000000E+00     0.981153846153846E+01    -0.116864250289305E+05     0.180267816398886E+05    -0.124992034228775E+04     0.260171658906710E+05     0.180792682675812E+05     0.000000000000000E+00    -0.117389116566230E+05
    -0.873000000000000E+00     0.981153846153846E+01    -0.116662231845094E+05     0.181751980012025E+05    -0.149610457115950E+04     0.261761244026290E+05     0.182500178585710E+05     0.000000000000000E+00    -0.117410430418779E+05
    -0.101850000000000E+01     0.981153846153846E+01    -0.116422476517303E+05     0.183505050926098E+05    -0.174021726877637E+04     0.263630263966082E+05     0.184511370478643E+05     0.000000000000000E+00    -0.117428796069849E+05
    -0.116400000000000E+01     0.981153846153846E+01    -0.116144481177254E+05     0.185526558826742E+05    -0.198191410369522E+04     0.265774200237508E+05     0.186823061902450E+05     0.000000000000000E+00    -0.117440984252962E+05
    -0.130950000000000E+01     0.981153846153846E+01    -0.115827665291852E+05     0.187815961043536E+05    -0.222085117082643E+04     0.268188033884391E+05     0.189431695255296E+05     0.000000000000000E+00    -0.117443399503613E+05
    -0.145500000000000E+01     0.981153846153846E+01    -0.115471370923596E+05     0.190372642550007E+05    -0.245668505234156E+04     0.270866315716746E+05     0.192333398860131E+05     0.000000000000000E+00    -0.117432127233720E+05
    -0.160050000000000E+01     0.981153846153846E+01    -0.115074862730567E+05     0.193195915963620E+05    -0.268907287858103E+04     0.273803238423136E+05     0.195524035281685E+05     0.000000000000000E+00    -0.117402982048632E+05
    -0.174600000000000E+01     0.981153846153846E+01    -0.114637327966437E+05     0.196285021545791E+05    -0.291767238896171E+04     0.276992708725614E+05     0.198999249660926E+05     0.000000000000000E+00    -0.117351556081572E+05
    -0.189150000000000E+01     0.981153846153846E+01    -0.114157876480466E+05     0.199639127201874E+05    -0.314214199288461E+04     0.280428417938107E+05     0.202754516977490E+05     0.000000000000000E+00    -0.117273266256082E+05
    -0.203700000000000E+01     0.981153846153846E+01    -0.113635540717499E+05     0.203257328481172E+05    -0.336214083064253E+04     0.284103909532649E+05     0.206785187316779E+05     0.000000000000000E+00    -0.117163399553106E+05
    -0.218250000000000E+01     0.981153846153846E+01    -0.113069275717971E+05     0.207138648576929E+05    -0.357732883432767E+04     0.288012642587317E+05     0.211086528400861E+05     0.000000000000000E+00    -0.117017155541903E+05
    -0.232800000000000E+01     0.981153846153846E+01    -0.112457959117905E+05     0.211282038326332E+05    -0.378736678873931E+04     0.292148050266432E+05     0.215653764828488E+05     0.000000000000000E+00    -0.116829685620061E+05
    -0.247350000000000E+01     0.981153846153846E+01    -0.111800391148910E+05     0.215686376210515E+05    -0.399191639229146E+04     0.296503592751611E+05     0.220482113648678E+05     0.000000000000000E+00    -0.116596128587073E+05
    -0.261900000000000E+01     0.981153846153846E+01    -0.111095294638183E+05     0.220350468354556E+05    -0.419064031792050E+04     0.301072804289232E+05     0.225566816056395E+05     0.000000000000000E+00    -0.116311642340023E+05
    -0.276450000000000E+01     0.981153846153846E+01    -0.110341315008511E+05     0.225273048527474E+05    -0.438320227399280E+04     0.305849334237607E+05     0.230903165142469E+05     0.000000000000000E+00    -0.115971431623507E+05
    -0.291000000000000E+01     0.981153846153846E+01    -0.109537020278266E+05     0.230452778142235E+05    -0.456926706521244E+04     0.310826982180497E+05     0.236486529750046E+05     0.000000000000000E+00    -0.115570771886076E+05
     0.000000000000000E+00     0.987435897435897E+01    -0.120503727127716E+05     0.190585307490341E+05    -0.160565322575958E-10     0.271680230365087E+05     0.190585307490341E+05     0.000000000000000E+00    -0.120503727127716E+05
    -0.147000000000000E+00     0.987435897435897E+01    -0.120484024308986E+05     0.190723977580771E+05    -0.252321651460952E+03     0.271827754200717E+05     0.190744434005656E+05     0.000000000000000E+00    -0.120504480733871E+05
    -0.294000000000000E+00     0.987435897435897E+01    -0.120424875239002E+05     0.191139950021935E+05    -0.504283434346156E+03     0.272269951041139E+05     0.191221549476313E+05     0.000000000000000E+00    -0.120506474693380E+05
    -0.441000000000000E+00     0.987435897435897E+01    -0.120326158076381E+05     0.191833111323449E+05    -0.755525544192517E+03     0.273005702960990E+05     0.192015865741490E+05     0.000000000000000E+00    -0.120508912494423E+05
    -0.588000000000000E+00     0.987435897435897E+01    -0.120187669752152E+05     0.192803272334676E+05    -0.100568830476217E+04     0.274033166780605E+05     0.193126082603530E+05     0.000000000000000E+00    -0.120510480021006E+05
    -0.735000000000000E+00     0.987435897435897E+01    -0.120009125969755E+05     0.194050168244726E+05    -0.125441223215512E+04     0.275349803362230E+05     0.194550407430349E+05     0.000000000000000E+00    -0.120509365155379E+05
    -0.882000000000000E+00     0.987435897435897E+01    -0.119790161205043E+05     0.195573458582451E+05    -0.150133809892184E+04     0.276952417177814E+05     0.196286581625636E+05     0.000000000000000E+00    -0.120503284248228E+05
    -0.102900000000000E+01     0.987435897435897E+01    -0.119530328706279E+05     0.197372727216447E+05    -0.174610699817593E+04     0.278837204809634E+05     0.198331913067545E+05     0.000000000000000E+00    -0.120489514557378E+05
    -0.117600000000000E+01     0.987435897435897E+01    -0.119229100494138E+05     0.199447482355060E+05    -0.198836040770672E+04     0.280999810805467E+05     0.200683313457113E+05     0.000000000000000E+00    -0.120464931596190E+05
    -0.132300000000000E+01     0.987435897435897E+01    -0.118885867361706E+05     0.201797156546378E+05    -0.222774025409189E+04     0.283435389158802E+05     0.203337339418151E+05     0.000000000000000E+00    -0.120426050233480E+05
    -0.147000000000000E+01     0.987435897435897E+01    -0.118499938874483E+05     0.204421106678235E+05    -0.246388897681007E+04     0.286138668623885E+05     0.206290236152224E+05     0.000000000000000E+00    -0.120369068348472E+05
    -0.161700000000000E+01     0.987435897435897E+01    -0.118070543370377E+05     0.207318613978209E+05    -0.269644959235353E+04     0.289104020100124E+05     0.209537982471571E+05     0.000000000000000E+00    -0.120289911863738E+05
    -0.176400000000000E+01     0.987435897435897E+01    -0.117596827959709E+05     0.210488884013623E+05    -0.292506575834071E+04     0.292325524420041E+05     0.213076336102420E+05     0.000000000000000E+00    -0.120184280048506E+05
    -0.191100000000000E+01     0.987435897435897E+01    -0.117077858525213E+05     0.213931046691548E+05    -0.314938183762893E+04     0.295797039034962E+05     0.216900878260659E+05     0.000000000000000E+00    -0.120047690094325E+05
    -0.205800000000000E+01     0.987435897435897E+01    -0.116512619722033E+05     0.217644156258797E+05    -0.336904296242695E+04     0.299512262296224E+05     0.221007056639901E+05     0.000000000000000E+00    -0.119875520103138E+05
    -0.220500000000000E+01     0.987435897435897E+01    -0.115900014977725E+05     0.221627191301929E+05    -0.358369509840760E+04     0.303464794259711E+05     0.225390226107006E+05     0.000000000000000E+00    -0.119663049782802E+05
    -0.235200000000000E+01     0.987435897435897E+01    -0.115238866492256E+05     0.225879054747250E+05    -0.379298510882044E+04     0.307648193181866E+05     0.230045686561072E+05     0.000000000000000E+00    -0.119405498306079E+05
    -0.249900000000000E+01     0.987435897435897E+01    -0.114527915238006E+05     0.230398573860807E+05    -0.399656081860434E+04     0.312056027112098E+05     0.234968717569629E+05     0.000000000000000E+00    -0.119098058946828E+05
    -0.264600000000000E+01     0.987435897435897E+01    -0.113765820959764E+05     0.235184500248398E+05    -0.419407107850013E+04     0.316681920208531E+05     0.240154609542888E+05     0.000000000000000E+00    -0.118735930254254E+05
    -0.279300000000000E+01     0.987435897435897E+01    -0.112951162174734E+05     0.240235509855558E+05    -0.438516582916318E+04     0.321519593603230E+05     0.245598691338094E+05     0.000000000000000E+00    -0.118314343657270E+05
    -0.294000000000000E+01     0.987435897435897E+01    -0.112082436172528E+05     0.245550202967578E+05    -0.456949616527609E+04     0.326562900814520E+05     0.251296354298373E+05     0.000000000000000E+00    -0.117828587503324E+05
     0.000000000000000E+00     0.993717948717949E+01    -0.123865898513862E+05     0.204285807080834E+05    -0.122796515270244E-10     0.287018286589916E+05     0.204285807080834E+05     0.000000000000000E+00    -0.123865898513862E+05
    -0.148500000000000E+00     0.993717948717949E+01    -0.123844590846133E+05     0.204428110085554E+05    -0.253142998046636E+03     0.287166980934838E+05     0.204447629700534E+05     0.000000000000000E+00    -0.123864110461113E+05
    -0.297000000000000E+00     0.993717948717949E+01    -0.123780625243080E+05     0.204854979559037E+05    -0.505911407250994E+03     0.287612703466438E+05     0.204932842615167E+05     0.000000000000000E+00    -0.123858488299210E+05
    -0.445500000000000E+00     0.993717948717949E+01    -0.123673873905097E+05     0.205566296879239E+05    -0.757930706221934E+03     0.288354378266307E+05     0.205740684725915E+05     0.000000000000000E+00    -0.123848261751773E+05
    -0.594000000000000E+00     0.993717948717949E+01    -0.123524123832844E+05     0.206561864342763E+05    -0.100882650847053E+04     0.289390230583042E+05     0.206869899855280E+05     0.000000000000000E+00    -0.123832159345361E+05
    -0.742500000000000E+00     0.993717948717949E+01    -0.123331076827243E+05     0.207841405164850E+05    -0.125822462986122E+04     0.290717813844099E+05     0.208318754787337E+05     0.000000000000000E+00    -0.123808426449730E+05
    -0.891000000000000E+00     0.993717948717949E+01    -0.123094349489481E+05     0.209404563479381E+05    -0.150575115606286E+04     0.292334046198945E+05     0.210085063670698E+05     0.000000000000000E+00    -0.123774849680799E+05
    -0.103950000000000E+01     0.993717948717949E+01    -0.122813473221009E+05     0.211250904338874E+05    -0.175103250999993E+04     0.294235255411140E+05     0.212166217992656E+05     0.000000000000000E+00    -0.123728786874791E+05
    -0.118800000000000E+01     0.993717948717949E+01    -0.122487894223539E+05     0.213379913714492E+05    -0.199369551930356E+04     0.296417230699764E+05     0.214559221188709E+05     0.000000000000000E+00    -0.123667201697757E+05
    -0.133650000000000E+01     0.993717948717949E+01    -0.122116973499051E+05     0.215790998496035E+05    -0.223336748376269E+04     0.298875279988854E+05     0.217260726858351E+05     0.000000000000000E+00    -0.123586701861367E+05
    -0.148500000000000E+01     0.993717948717949E+01    -0.121699986849783E+05     0.218483486491946E+05    -0.246967624277519E+04     0.301604290959391E+05     0.220267079517124E+05     0.000000000000000E+00    -0.123483579874962E+05
    -0.163350000000000E+01     0.993717948717949E+01    -0.121236124878243E+05     0.221456626429304E+05    -0.270225024279896E+04     0.304598794308597E+05     0.223574356823885E+05     0.000000000000000E+00    -0.123353855272824E+05
    -0.178200000000000E+01     0.993717948717949E+01    -0.120724492987197E+05     0.224709587953832E+05    -0.293071860480302E+04     0.307853027697710E+05     0.227178412275393E+05     0.000000000000000E+00    -0.123193317308758E+05
    -0.193050000000000E+01     0.993717948717949E+01    -0.120164111379679E+05     0.228241461629892E+05    -0.315471119171870E+04     0.311360999000066E+05     0.231074917449517E+05     0.000000000000000E+00    -0.122997567199304E+05
    -0.207900000000000E+01     0.993717948717949E+01    -0.119553915058984E+05     0.232051258940485E+05    -0.337385867589066E+04     0.315116547632714E+05     0.235259402994191E+05     0.000000000000000E+00    -0.122762059112691E+05
    -0.222750000000000E+01     0.993717948717949E+01    -0.118892753828671E+05     0.236137912287254E+05    -0.358779260652808E+04     0.319113402952257E+05     0.239727297691912E+05     0.000000000000000E+00    -0.122482139233329E+05
    -0.237600000000000E+01     0.993717948717949E+01    -0.118179392292564E+05     0.240500274990479E+05    -0.379614547715572E+04     0.323345238905453E+05     0.244473965069772E+05     0.000000000000000E+00    -0.122153082371857E+05
    -0.252450000000000E+01     0.993717948717949E+01    -0.117412509854750E+05     0.245137121289084E+05    -0.399855079306509E+04     0.327805724335051E+05     0.249494737164651E+05     0.000000000000000E+00    -0.121770125730317E+05
    -0.267300000000000E+01     0.993717948717949E+01    -0.116590700719579E+05     0.250047146340631E+05    -0.419464313876551E+04     0.332488568541294E+05     0.254784945185441E+05     0.000000000000000E+00    -0.121328499564389E+05
    -0.282150000000000E+01     0.993717948717949E+01    -0.115712473891665E+05     0.255228966221323E+05    -0.438405824543526E+04     0.337387561881921E+05     0.260339946934371E+05     0.000000000000000E+00    -0.120823454604713E+05
    -0.297000000000000E+01     0.993717948717949E+01    -0.114776253175887E+05     0.260681117926002E+05    -0.456643305837269E+04     0.342496611353270E+05     0.266155150954132E+05     0.000000000000000E+00    -0.120250286204017E+05
     0.000000000000000E+00     0.100000000000000E+02    -0.127413840684923E+05     0.217993932415931E+05    -0.802474300618407E-11     0.302541047699924E+05     0.217993932415931E+05     0.000000000000000E+00    -0.127413840684923E+05
    -0.150000000000000E+00     0.100000000000000E+02    -0.127390852085113E+05     0.218139937008111E+05    -0.253825304855742E+03     0.302690967734000E+05     0.218158581890449E+05     0.000000000000000E+00    -0.127409496967451E+05
    -0.300000000000000E+00     0.100000000000000E+02    -0.127321841623109E+05     0.218577909473476E+05    -0.507260827235430E+03     0.303140379857982E+05     0.218652283112558E+05     0.000000000000000E+00    -0.127396215262191E+05
    -0.450000000000000E+00     0.100000000000000E+02    -0.127206675311190E+05     0.219307725878501E+05    -0.759916855590281E+03     0.303888245315628E+05     0.219474297935226E+05     0.000000000000000E+00    -0.127373247367915E+05
    -0.600000000000000E+00     0.100000000000000E+02    -0.127045129836488E+05     0.220329179667305E+05    -0.101140382022602E+04     0.304932849938979E+05     0.220623407524486E+05     0.000000000000000E+00    -0.127339357693668E+05
    -0.750000000000000E+00     0.100000000000000E+02    -0.126836892560986E+05     0.221641981661662E+05    -0.126133236423014E+04     0.306271829204672E+05     0.222097929086325E+05     0.000000000000000E+00    -0.127292839985649E+05
    -0.900000000000000E+00     0.100000000000000E+02    -0.126581561521520E+05     0.223245760060990E+05    -0.150931341439914E+04     0.307902202182576E+05     0.223895738528229E+05     0.000000000000000E+00    -0.127231539988760E+05
    -0.105000000000000E+01     0.100000000000000E+02    -0.126278645429781E+05     0.225140060442357E+05    -0.175495825216584E+04     0.309820413324012E+05     0.226014298351804E+05     0.000000000000000E+00    -0.127152883339228E+05
    -0.120000000000000E+01     0.100000000000000E+02    -0.125927563672308E+05     0.227324345760483E+05    -0.199787858452655E+04     0.312022380839014E+05     0.228450689941540E+05     0.000000000000000E+00    -0.127053907853365E+05
    -0.135000000000000E+01     0.100000000000000E+02    -0.125527646310497E+05     0.229797996347733E+05    -0.223768661496839E+04     0.314503550279051E+05     0.231201649327189E+05     0.000000000000000E+00    -0.126931299289952E+05
    -0.150000000000000E+01     0.100000000000000E+02    -0.125078134080592E+05     0.232560309914123E+05    -0.247399511439654E+04     0.317258951876091E+05     0.234263605455010E+05     0.000000000000000E+00    -0.126781429621480E+05
    -0.165000000000000E+01     0.100000000000000E+02    -0.124578178393695E+05     0.235610501547317E+05    -0.270641749206147E+04     0.320283260188321E+05     0.237632720004500E+05     0.000000000000000E+00    -0.126600396850878E+05
    -0.180000000000000E+01     0.100000000000000E+02    -0.124026841335756E+05     0.238947703712627E+05    -0.293456786648620E+04     0.323570854661039E+05     0.241304927827773E+05     0.000000000000000E+00    -0.126384065450902E+05
    -0.195000000000000E+01     0.100000000000000E+02    -0.123423095667579E+05     0.242570966253017E+05    -0.315806113639359E+04     0.327115879818565E+05     0.245275977161957E+05     0.000000000000000E+00    -0.126128106576519E+05
    -0.210000000000000E+01     0.100000000000000E+02    -0.122765824824821E+05     0.246479256389095E+05    -0.337651305163356E+04     0.330912303948058E+05     0.249541468862810E+05     0.000000000000000E+00    -0.125828037298536E+05
    -0.225000000000000E+01     0.100000000000000E+02    -0.122053822917992E+05     0.250671458719124E+05    -0.358954028411035E+04     0.334953975306674E+05     0.254096894022308E+05     0.000000000000000E+00    -0.125479258221175E+05
    -0.240000000000000E+01     0.100000000000000E+02    -0.121285794732452E+05     0.255146375219010E+05    -0.379676049870978E+04     0.339234675067561E+05     0.258937669455766E+05     0.000000000000000E+00    -0.125077088969209E+05
    -0.255000000000000E+01     0.100000000000000E+02    -0.120460355728417E+05     0.259902725242311E+05    -0.399779242422653E+04     0.343748166407083E+05     0.264059170668365E+05     0.000000000000000E+00    -0.124616801154471E+05
    -0.270000000000000E+01     0.100000000000000E+02    -0.119576032040953E+05     0.264939145520234E+05    -0.419225592429136E+04     0.348488239316203E+05     0.269456762030356E+05     0.000000000000000E+00    -0.124093648551075E+05
    -0.285000000000000E+01     0.100000000000000E+02    -0.118631260479978E+05     0.270254190161633E+05    -0.437977206829839E+04     0.353448750886084E+05     0.275125824000440E+05     0.000000000000000E+00    -0.123502894318785E+05
    -0.300000000000000E+01     0.100000000000000E+02    -0.117624388530266E+05     0.275846330653012E+05    -0.455996320233233E+04     0.358623660966780E+05     0.281061777334371E+05     0.000000000000000E+00    -0.122839835211626E+05
 zone I=   21 ,j=   21 ,f=point, T="    1"
    -0.240000000000000E+01     0.874358974358974E+01    -0.840265934919110E+04    -0.217995000729340E+04    -0.416302315840919E+04     0.104418281117651E+05     0.000000000000000E+00    -0.940660166175549E+02    -0.104885433398669E+05
    -0.280000000000000E+01     0.854358974358975E+01    -0.818383929415022E+04    -0.539655710451456E+04    -0.478120646396622E+04     0.109778551567658E+05     0.000000000000000E+00    -0.181002041613656E+04    -0.117703759825282E+05
    -0.320000000000000E+01     0.834358974358974E+01    -0.807341321855966E+04    -0.847735064242178E+04    -0.535543212520458E+04     0.124356857438707E+05     0.000000000000000E+00    -0.291614274864108E+04    -0.136346211123404E+05
    -0.360000000000000E+01     0.814358974358974E+01    -0.806314194404815E+04    -0.114322621768532E+05    -0.588005697525044E+04     0.143963930869232E+05     0.000000000000000E+00    -0.363110064970258E+04    -0.158643034711987E+05
    -0.400000000000000E+01     0.794358974358974E+01    -0.814462703848077E+04    -0.142709084219200E+05    -0.635053616859069E+04     0.165755989053688E+05     0.000000000000000E+00    -0.415708403811442E+04    -0.182584514222864E+05
    -0.440000000000000E+01     0.774358974358974E+01    -0.830935546160290E+04    -0.170025944617712E+05    -0.676336452484582E+04     0.188170748139612E+05     0.000000000000000E+00    -0.461631074143165E+04    -0.206956391819424E+05
    -0.480000000000000E+01     0.754358974358974E+01    -0.854874421068431E+04    -0.196363169623580E+05    -0.711601787254283E+04     0.210407521624543E+05     0.000000000000000E+00    -0.507192762755754E+04    -0.231131335454848E+05
    -0.520000000000000E+01     0.734358974358974E+01    -0.885418496616316E+04    -0.221807673831983E+05    -0.740689439288808E+04     0.232072546774171E+05     0.000000000000000E+00    -0.555446788014918E+04    -0.254804844692122E+05
    -0.560000000000000E+01     0.714358974358974E+01    -0.921708873729005E+04    -0.246443351891419E+05    -0.763525596354015E+04     0.252990189193641E+05     0.000000000000000E+00    -0.607727394108126E+04    -0.277841499853506E+05
    -0.600000000000000E+01     0.694358974358974E+01    -0.962893050777201E+04    -0.270351110621348E+05    -0.780116950238276E+04     0.273106035083993E+05     0.000000000000000E+00    -0.664433384622698E+04    -0.300197077236798E+05
    -0.640000000000000E+01     0.674358974358974E+01    -0.100812938814166E+05    -0.293608901129838E+05    -0.790544831129756E+04     0.292435793245119E+05     0.000000000000000E+00    -0.725426318167286E+04    -0.321879208127275E+05
    -0.680000000000000E+01     0.654358974358974E+01    -0.105659157277758E+05    -0.316291750931216E+05    -0.794959341993712E+04     0.311037007491349E+05     0.000000000000000E+00    -0.790242285265245E+04    -0.342926679682450E+05
    -0.720000000000000E+01     0.634358974358974E+01    -0.110747308277904E+05    -0.338471796063707E+05    -0.793573492949768E+04     0.328992476115677E+05     0.000000000000000E+00    -0.858212260354580E+04    -0.363397878306153E+05
    -0.760000000000000E+01     0.614358974358974E+01    -0.115999165194334E+05    -0.360218313207087E+05    -0.786657335649214E+04     0.346399926079279E+05     0.000000000000000E+00    -0.928536336060155E+04    -0.383363844795405E+05
    -0.800000000000000E+01     0.594358974358974E+01    -0.121339373433546E+05    -0.381597751800329E+05    -0.774532097652282E+04     0.363365180948889E+05     0.000000000000000E+00    -0.100033409563021E+05    -0.402903715670855E+05
    -0.840000000000000E+01     0.574358974358974E+01    -0.126695896885246E+05    -0.402673766159244E+05    -0.757564316805445E+04     0.379997380395745E+05     0.000000000000000E+00    -0.107268240836184E+05    -0.422101422208307E+05
    -0.880000000000000E+01     0.554358974358974E+01    -0.132000464378784E+05    -0.423507247594138E+05    -0.736159975618694E+04     0.396405478395365E+05     0.000000000000000E+00    -0.114464645497310E+05    -0.441043066475611E+05
    -0.920000000000000E+01     0.534358974358974E+01    -0.137189016139597E+05    -0.444156356527447E+05    -0.710758635642832E+04     0.412695598199404E+05     0.000000000000000E+00    -0.121530688599056E+05    -0.459814684067988E+05
    -0.960000000000000E+01     0.514358974358974E+01    -0.142202150245653E+05    -0.464676554611389E+05    -0.681827571846759E+04     0.428969010346238E+05     0.000000000000000E+00    -0.128378438044231E+05    -0.478500266812810E+05
    -0.100000000000000E+02     0.494358974358974E+01    -0.146985569083882E+05    -0.485120636845613E+05    -0.649855906994759E+04     0.445320601282938E+05     0.000000000000000E+00    -0.134926191625992E+05    -0.497180014303503E+05
    -0.104000000000000E+02     0.474358974358974E+01    -0.151490525806628E+05    -0.505538763694843E+05    -0.615348746023789E+04     0.461837753173673E+05     0.000000000000000E+00    -0.141100452437912E+05    -0.515928837063559E+05
    -0.243000000000000E+01     0.880641025641026E+01    -0.847982148482828E+04    -0.716027587773831E+03    -0.420360989928159E+04     0.109251677494896E+05     0.112391608576481E+04     0.000000000000000E+00    -0.103197651583669E+05
    -0.283500000000000E+01     0.860391025641026E+01    -0.822812441641464E+04    -0.395461211786536E+04    -0.482891660987077E+04     0.109889605862232E+05     0.000000000000000E+00    -0.810822607215371E+03    -0.113719139270646E+05
    -0.324000000000000E+01     0.840141025641026E+01    -0.809122203291609E+04    -0.705390445819250E+04    -0.540915453468689E+04     0.120800493898582E+05     0.000000000000000E+00    -0.213859970888685E+04    -0.130065267822217E+05
    -0.364500000000000E+01     0.819891025641026E+01    -0.806023544351351E+04    -0.100243156287147E+05    -0.593838584862327E+04     0.138003345815535E+05     0.000000000000000E+00    -0.302323664019361E+04    -0.150613144320346E+05
    -0.405000000000000E+01     0.799641025641026E+01    -0.812613285818221E+04    -0.128759211206033E+05    -0.641183485409942E+04     0.158280388179983E+05     0.000000000000000E+00    -0.366350197439629E+04    -0.173385520043892E+05
    -0.445500000000000E+01     0.779391025641026E+01    -0.827977709432506E+04    -0.156184643138211E+05    -0.682582556601663E+04     0.179707934480580E+05     0.000000000000000E+00    -0.419954154233243E+04    -0.196986998658137E+05
    -0.486000000000000E+01     0.759141025641026E+01    -0.851197308340547E+04    -0.182613598947057E+05    -0.717771929671341E+04     0.201258468143258E+05     0.000000000000000E+00    -0.471012973171393E+04    -0.220632032463972E+05
    -0.526500000000000E+01     0.738891025641026E+01    -0.881351537758048E+04    -0.208136972735496E+05    -0.746585224092105E+04     0.222410219093206E+05     0.000000000000000E+00    -0.523550416139118E+04    -0.243917084897389E+05
    -0.567000000000000E+01     0.718641025641026E+01    -0.917523565633379E+04    -0.232842440021824E+05    -0.768947306071911E+04     0.242916967327809E+05     0.000000000000000E+00    -0.579450983287894E+04    -0.266649698256372E+05
    -0.607500000000000E+01     0.698391025641026E+01    -0.958805023310884E+04    -0.256814491915521E+05    -0.784868047049095E+04     0.262685719125889E+05     0.000000000000000E+00    -0.639414663078847E+04    -0.288753527938725E+05
    -0.648000000000000E+01     0.678141025641026E+01    -0.100430075619418E+05    -0.280134469293061E+05    -0.794436082187926E+04     0.281711653469967E+05     0.000000000000000E+00    -0.703460220428475E+04    -0.310218522869632E+05
    -0.688500000000000E+01     0.657891025641026E+01    -0.105313357440947E+05    -0.302880596973736E+05    -0.797812568874153E+04     0.300042219627899E+05     0.000000000000000E+00    -0.771196072365970E+04    -0.331074347178086E+05
    -0.729000000000000E+01     0.637641025641026E+01    -0.110444900346884E+05    -0.325128017895461E+05    -0.795224945210563E+04     0.317756280663930E+05     0.000000000000000E+00    -0.841973975369791E+04    -0.351375520705366E+05
    -0.769500000000000E+01     0.617391025641026E+01    -0.115742003493357E+05    -0.346948827290593E+05    -0.786960688512529E+04     0.334951282291341E+05     0.000000000000000E+00    -0.914982842263961E+04    -0.371192546557554E+05
    -0.810000000000000E+01     0.597141025641026E+01    -0.121125187707744E+05    -0.368412106861744E+05    -0.773361073803557E+04     0.351734880977632E+05     0.000000000000000E+00    -0.989311397603929E+04    -0.390606154809095E+05
    -0.850500000000000E+01     0.576891025641026E+01    -0.126518670555002E+05    -0.389583958957600E+05    -0.754814932310847E+04     0.368219171120129E+05     0.000000000000000E+00    -0.106399436063751E+05    -0.409703193448850E+05
    -0.891000000000000E+01     0.556641025641026E+01    -0.131850841404000E+05    -0.410527540748728E+05    -0.731752409960839E+04     0.384516517342769E+05     0.000000000000000E+00    -0.113804974636935E+05    -0.428573407515793E+05
    -0.931500000000000E+01     0.536391025641026E+01    -0.137054736493847E+05    -0.431303098403398E+05    -0.704638725874765E+04     0.400736450809237E+05     0.000000000000000E+00    -0.121051108778127E+05    -0.447306726119117E+05
    -0.972000000000000E+01     0.516141025641026E+01    -0.142068514000224E+05    -0.451968001263392E+05    -0.673967930864201E+04     0.416983330213711E+05     0.000000000000000E+00    -0.128045624433922E+05    -0.465990890829694E+05
    -0.101250000000000E+02     0.495891025641026E+01    -0.146835929101716E+05    -0.472576776019821E+05    -0.640256665926620E+04     0.433354597619077E+05     0.000000000000000E+00    -0.134703321671684E+05    -0.484709383449852E+05
    -0.105300000000000E+02     0.475641025641026E+01    -0.151306809046137E+05    -0.493181140888938E+05    -0.604037920740939E+04     0.449939526795981E+05     0.000000000000000E+00    -0.140948269584948E+05    -0.503539680350127E+05
    -0.246000000000000E+01     0.886923076923077E+01    -0.856418772764256E+04     0.750065288598387E+03    -0.424255229783773E+04     0.115900543273392E+05     0.239278618438593E+04     0.000000000000000E+00    -0.102069086234301E+05
    -0.287000000000000E+01     0.866423076923077E+01    -0.827744980917622E+04    -0.250999978482575E+04    -0.487487523440338E+04     0.111952267809239E+05     0.270220691511810E+03     0.000000000000000E+00    -0.110576702855138E+05
    -0.328000000000000E+01     0.845923076923077E+01    -0.811226364698494E+04    -0.562724916018074E+04    -0.546101480397071E+04     0.118866763168620E+05     0.000000000000000E+00    -0.126917545701186E+04    -0.124703373501538E+05
    -0.369000000000000E+01     0.825423076923077E+01    -0.805907163686743E+04    -0.861259102348879E+04    -0.599472673739216E+04     0.133238927388626E+05     0.000000000000000E+00    -0.233471938455954E+04    -0.143369432757967E+05
    -0.410000000000000E+01     0.804923076923077E+01    -0.810817077945269E+04    -0.114765762721602E+05    -0.647099560039086E+04     0.151664612920162E+05     0.000000000000000E+00    -0.310579570519423E+04    -0.164789513464187E+05
    -0.451000000000000E+01     0.784423076923077E+01    -0.824976319264833E+04    -0.142294021488103E+05    -0.688596842942350E+04     0.171870580315465E+05     0.000000000000000E+00    -0.373254718909414E+04    -0.187466181523645E+05
    -0.492000000000000E+01     0.763923076923077E+01    -0.847400662408888E+04    -0.168809158750762E+05    -0.723688836754326E+04     0.192572785157526E+05     0.000000000000000E+00    -0.430837623191979E+04    -0.210465462672453E+05
    -0.533000000000000E+01     0.743423076923077E+01    -0.877106496358415E+04    -0.194406182854336E+05    -0.752202830026268E+04     0.213095523944410E+05     0.000000000000000E+00    -0.488408735691423E+04    -0.233275958921035E+05
    -0.574000000000000E+01     0.722923076923077E+01    -0.913115875556751E+04    -0.219176674610140E+05    -0.774062449141652E+04     0.233105192684347E+05     0.000000000000000E+00    -0.548494256768296E+04    -0.255638836488986E+05
    -0.615000000000000E+01     0.702423076923077E+01    -0.954461571154427E+04    -0.243208823634216E+05    -0.789281021902473E+04     0.252460074378611E+05     0.000000000000000E+00    -0.612159890461609E+04    -0.277438991703498E+05
    -0.656000000000000E+01     0.681923076923077E+01    -0.100019212225400E+05    -0.266587464685499E+05    -0.797954941115527E+04     0.271128776739287E+05     0.000000000000000E+00    -0.679622505361406E+04    -0.298644426374758E+05
    -0.697000000000000E+01     0.661423076923077E+01    -0.104937688715487E+05    -0.289394114003989E+05    -0.800257028178704E+04     0.289145052899302E+05     0.000000000000000E+00    -0.750587503854919E+04    -0.319273052333984E+05
    -0.738000000000000E+01     0.640923076923077E+01    -0.110111109459814E+05    -0.311707005648920E+05    -0.796429896667276E+04     0.306581680776675E+05     0.000000000000000E+00    -0.824441512837178E+04    -0.339373963825016E+05
    -0.779000000000000E+01     0.620423076923077E+01    -0.115452089501144E+05    -0.333601127836925E+05    -0.786779315920187E+04     0.323534543680165E+05     0.000000000000000E+00    -0.900369523704738E+04    -0.359016264967595E+05
    -0.820000000000000E+01     0.599923076923077E+01    -0.120876841175373E+05    -0.355148259280210E+05    -0.771667574626339E+04     0.340112367377999E+05     0.000000000000000E+00    -0.977432278778569E+04    -0.378281872577726E+05
    -0.861000000000000E+01     0.579423076923077E+01    -0.126305679236017E+05    -0.376417005524725E+05    -0.751506844410887E+04     0.356429736711988E+05     0.000000000000000E+00    -0.105462253087675E+05    -0.397260431673068E+05
    -0.902000000000000E+01     0.558923076923077E+01    -0.131663525978696E+05    -0.397472835288325E+05    -0.726752543421524E+04     0.372602122473238E+05     0.000000000000000E+00    -0.113090988216262E+05    -0.416045373050758E+05
    -0.943000000000000E+01     0.538423076923077E+01    -0.136880416365611E+05    -0.418378116798945E+05    -0.697896699914771E+04     0.388742228587933E+05     0.000000000000000E+00    -0.120527907979518E+05    -0.434730625185038E+05
    -0.984000000000000E+01     0.517923076923077E+01    -0.141892003150035E+05    -0.439192154132767E+05    -0.665461315842266E+04     0.404957278214021E+05     0.000000000000000E+00    -0.127676389890167E+05    -0.453407767392636E+05
    -0.102500000000000E+02     0.497423076923077E+01    -0.146640062000791E+05    -0.459971223552395E+05    -0.629991730437054E+04     0.421347022004609E+05     0.000000000000000E+00    -0.134447714315978E+05    -0.472163571237208E+05
    -0.106600000000000E+02     0.476923076923077E+01    -0.151072996626736E+05    -0.480768609845011E+05    -0.592049983799877E+04     0.438002337263460E+05     0.000000000000000E+00    -0.140763641872092E+05    -0.491077964599656E+05
    -0.249000000000000E+01     0.893205128205128E+01    -0.865609050176139E+04     0.221838821459925E+04    -0.427976840039517E+04     0.124097127638810E+05     0.370068564721398E+04     0.000000000000000E+00    -0.101383879343761E+05
    -0.290500000000000E+01     0.872455128205128E+01    -0.833204496476113E+04    -0.106265960706017E+04    -0.491899510439260E+04     0.115882539503643E+05     0.141881511751510E+04     0.000000000000000E+00    -0.108135196893364E+05
    -0.332000000000000E+01     0.851705128205128E+01    -0.813668056800679E+04    -0.419732334881701E+04    -0.551092125877937E+04     0.118651411281848E+05     0.000000000000000E+00    -0.314661661952542E+03    -0.120193422548713E+05
    -0.373500000000000E+01     0.830955128205128E+01    -0.805972024781726E+04    -0.719702653188922E+04    -0.604898403061509E+04     0.129815593947167E+05     0.000000000000000E+00    -0.156402940929675E+04    -0.136927173704097E+05
    -0.415000000000000E+01     0.810205128205128E+01    -0.809075027260875E+04    -0.100728125151294E+05    -0.652791912695675E+04     0.146036422073471E+05     0.000000000000000E+00    -0.247906446737631E+04    -0.156844983203619E+05
    -0.456500000000000E+01     0.789455128205128E+01    -0.821927391141478E+04    -0.128353483558876E+05    -0.694369028421946E+04     0.164757364464194E+05     0.000000000000000E+00    -0.321008006019228E+04    -0.178445422071101E+05
    -0.498000000000000E+01     0.768705128205128E+01    -0.843476510240624E+04    -0.154949286708709E+05    -0.729341875753725E+04     0.184424473633300E+05     0.000000000000000E+00    -0.386204276854678E+04    -0.200676510047303E+05
    -0.539500000000000E+01     0.747955128205128E+01    -0.872672212141134E+04    -0.180614794970073E+05    -0.757531281012381E+04     0.204184059232564E+05     0.000000000000000E+00    -0.449636019787788E+04    -0.222918414205408E+05
    -0.581000000000000E+01     0.727205128205128E+01    -0.908472125043565E+04    -0.205445621523062E+05    -0.778859720263332E+04     0.223597028830157E+05     0.000000000000000E+00    -0.514540001657921E+04    -0.244838833861627E+05
    -0.622500000000000E+01     0.706455128205128E+01    -0.949847044618213E+04    -0.229533770967202E+05    -0.793344268252114E+04     0.242461342353479E+05     0.000000000000000E+00    -0.582409022920866E+04    -0.266277573136937E+05
    -0.664000000000000E+01     0.685705128205128E+01    -0.995786300857110E+04    -0.252967677930068E+05    -0.801089547340467E+04     0.260711926671149E+05     0.000000000000000E+00    -0.653700673590900E+04    -0.287176240656689E+05
    -0.705500000000000E+01     0.664955128205128E+01    -0.104530312492603E+05    -0.275832245675907E+05    -0.802280676442409E+04     0.278364530179696E+05     0.000000000000000E+00    -0.728244262122848E+04    -0.307538131956224E+05
    -0.747000000000000E+01     0.644205128205128E+01    -0.109744001601647E+05    -0.298208884714239E+05    -0.797176219960310E+04     0.295483241924908E+05     0.000000000000000E+00    -0.805477094758592E+04    -0.327405176840027E+05
    -0.788500000000000E+01     0.623455128205128E+01    -0.115127410819770E+05    -0.320175551408494E+05    -0.786101136720976E+04     0.312160811305593E+05     0.000000000000000E+00    -0.884588537654192E+04    -0.346844108462845E+05
    -0.830000000000000E+01     0.602705128205128E+01    -0.120592253726870E+05    -0.341806786584612E+05    -0.769439728911722E+04     0.328506080877781E+05     0.000000000000000E+00    -0.964614692898308E+04    -0.365937571021652E+05
    -0.871500000000000E+01     0.581955128205128E+01    -0.126054780761022E+05    -0.363173754139672E+05    -0.747628591016448E+04     0.344635533274699E+05     0.000000000000000E+00    -0.104450659530571E+05    -0.384777875370123E+05
    -0.913000000000000E+01     0.561205128205128E+01    -0.131436315903672E+05    -0.384344279650497E+05    -0.721149558751723E+04     0.360667346546802E+05     0.000000000000000E+00    -0.112318403537436E+05    -0.403462192016733E+05
    -0.954500000000000E+01     0.540455128205128E+01    -0.136663793364843E+05    -0.405382888982281E+05    -0.690522658002854E+04     0.376717084772421E+05     0.000000000000000E+00    -0.119958111886619E+05    -0.422088570460506E+05
    -0.996000000000000E+01     0.519705128205128E+01    -0.141670294268333E+05    -0.426350846897200E+05    -0.656299053759970E+04     0.392894541099191E+05     0.000000000000000E+00    -0.127268621057658E+05    -0.440752520107875E+05
    -0.103750000000000E+02     0.498955128205128E+01    -0.146395583336912E+05    -0.447306195663032E+05    -0.619053999054096E+04     0.409301458178604E+05     0.000000000000000E+00    -0.134157688381828E+05    -0.459544090618116E+05
    -0.107900000000000E+02     0.478205128205128E+01    -0.150786645577528E+05    -0.468303793661767E+05    -0.579379783893234E+04     0.426029958458982E+05     0.000000000000000E+00    -0.140544941005295E+05    -0.478545498234000E+05
    -0.252000000000000E+01     0.899487179487179E+01    -0.875587572725814E+04     0.368900195212997E+04    -0.431517445504380E+04     0.133580211684537E+05     0.503884649931438E+04     0.000000000000000E+00    -0.101057202744426E+05
    -0.294000000000000E+01     0.878487179487179E+01    -0.839214964810463E+04     0.387470039720443E+03    -0.496118708243023E+04     0.121519606280621E+05     0.262214566507901E+04     0.000000000000000E+00    -0.106268252734632E+05
    -0.336000000000000E+01     0.857487179487180E+01    -0.816462282377987E+04    -0.276406454420454E+04    -0.555878023981265E+04     0.120180567255567E+05     0.715587156017583E+03     0.000000000000000E+00    -0.116442745240020E+05
    -0.378000000000000E+01     0.836487179487180E+01    -0.806225618896618E+04    -0.577755930025125E+04    -0.610106007095833E+04     0.127854919759546E+05     0.000000000000000E+00    -0.712823569428875E+03    -0.131269919197886E+05
    -0.420000000000000E+01     0.815487179487180E+01    -0.807388403726361E+04    -0.866456753676888E+04    -0.658250406123215E+04     0.141525156657716E+05     0.000000000000000E+00    -0.178009940597871E+04    -0.149583521680538E+05
    -0.462000000000000E+01     0.794487179487180E+01    -0.818827100160221E+04    -0.114362424689663E+05    -0.699888617573546E+04     0.158475737679760E+05     0.000000000000000E+00    -0.262742985051495E+04    -0.169970836200535E+05
    -0.504000000000000E+01     0.773487179487180E+01    -0.839416903465441E+04    -0.141033413180278E+05    -0.734720199744478E+04     0.176896752573912E+05     0.000000000000000E+00    -0.336649412816675E+04    -0.191310162245154E+05
    -0.546000000000000E+01     0.752487179487180E+01    -0.868037438924725E+04    -0.166762294102291E+05    -0.762559386535070E+04     0.195739280063085E+05     0.000000000000000E+00    -0.406824346913421E+04    -0.212883603303421E+05
    -0.588000000000000E+01     0.731487179487180E+01    -0.903578459877483E+04    -0.191648842760535E+05    -0.783327601259654E+04     0.214440916272916E+05     0.000000000000000E+00    -0.477242587452710E+04    -0.234282430003013E+05
    -0.630000000000000E+01     0.710487179487180E+01    -0.944945545761050E+04    -0.215788997493079E+05    -0.797045970461729E+04     0.232726653939660E+05     0.000000000000000E+00    -0.549873539608385E+04    -0.255296198108345E+05
    -0.672000000000000E+01     0.689487179487180E+01    -0.991065800151926E+04    -0.239274900662383E+05    -0.803827837727830E+04     0.250489622504333E+05     0.000000000000000E+00    -0.625456211099859E+04    -0.275835859567590E+05
    -0.714000000000000E+01     0.668487179487179E+01    -0.104089354880701E+05    -0.262194939646465E+05    -0.803871277501408E+04     0.267722522359740E+05     0.000000000000000E+00    -0.703971505167271E+04    -0.295887144010439E+05
    -0.756000000000000E+01     0.647487179487180E+01    -0.109341603770482E+05    -0.284633787830061E+05    -0.797451608896717E+04     0.284477655883449E+05     0.000000000000000E+00    -0.784924295091069E+04    -0.315482962091436E+05
    -0.798000000000000E+01     0.626487179487179E+01    -0.114765913108674E+05    -0.306672445595778E+05    -0.784913909512682E+04     0.300842742667474E+05     0.000000000000000E+00    -0.867517329952456E+04    -0.334686625709206E+05
    -0.840000000000000E+01     0.605487179487180E+01    -0.120269300949825E+05    -0.328388281315261E+05    -0.766665529246790E+04     0.316925574913586E+05     0.000000000000000E+00    -0.950765654865608E+04    -0.353581016778524E+05
    -0.882000000000000E+01     0.584487179487179E+01    -0.125763786783014E+05    -0.349855072340351E+05    -0.743168604108959E+04     0.332843792505592E+05     0.000000000000000E+00    -0.103357870228897E+05    -0.372260988894468E+05
    -0.924000000000000E+01     0.563487179487180E+01    -0.131166961335977E+05    -0.371143045994244E+05    -0.714932570035424E+04     0.348717771504234E+05     0.000000000000000E+00    -0.111482472009983E+05    -0.390827535320238E+05
    -0.966000000000000E+01     0.542487179487180E+01    -0.136402556379229E+05    -0.392318920562654E+05    -0.682506676702613E+04     0.364665531754590E+05     0.000000000000000E+00    -0.119338498791462E+05    -0.409382978150420E+05
    -0.100800000000000E+02     0.521487179487179E+01    -0.141401014530185E+05    -0.413445946284970E+05    -0.646472501341030E+04     0.380799057248382E+05     0.000000000000000E+00    -0.126820100056180E+05    -0.428026860758975E+05
    -0.105000000000000E+02     0.500487179487179E+01    -0.146100059057288E+05    -0.434583946345421E+05    -0.607436462549127E+04     0.397221682605964E+05     0.000000000000000E+00    -0.133831527439920E+05    -0.446852477962788E+05
    -0.109200000000000E+02     0.479487179487179E+01    -0.150445263684128E+05    -0.455789357864226E+05    -0.566022334107193E+04     0.414026333051670E+05     0.000000000000000E+00    -0.140290510800254E+05    -0.465944110748099E+05
    -0.255000000000000E+01     0.905769230769231E+01    -0.886390303977697E+04     0.516196844174428E+04    -0.434868489680301E+04     0.144119070233328E+05     0.640084026270735E+04     0.000000000000000E+00    -0.101027748607400E+05
    -0.297500000000000E+01     0.884519230769231E+01    -0.845801407079683E+04     0.184045191502536E+04    -0.500136011117975E+04     0.128659489487689E+05     0.386953372274708E+04     0.000000000000000E+00    -0.104870958785185E+05
    -0.340000000000000E+01     0.863269230769231E+01    -0.819624809775937E+04    -0.132740917715177E+04    -0.560449608639736E+04     0.123406584997626E+05     0.181126906543587E+04     0.000000000000000E+00    -0.113349263403470E+05
    -0.382500000000000E+01     0.842019230769231E+01    -0.806675966387338E+04    -0.435412544196588E+04    -0.615085513783627E+04     0.127438766916631E+05     0.214425705890542E+03     0.000000000000000E+00    -0.126353108117298E+05
    -0.425000000000000E+01     0.820769230769231E+01    -0.805758807657006E+04    -0.725177806504816E+04    -0.663464692134987E+04     0.138252229478756E+05     0.000000000000000E+00    -0.100781371639537E+04    -0.143015524252228E+05
    -0.467500000000000E+01     0.799519230769231E+01    -0.815671786132827E+04    -0.100320231594726E+05    -0.705144900797282E+04     0.153138483663480E+05     0.000000000000000E+00    -0.198085340545488E+04    -0.162078876153460E+05
    -0.510000000000000E+01     0.778269230769231E+01    -0.835213921549967E+04    -0.127060961147453E+05    -0.739812745862930E+04     0.170081419913739E+05     0.000000000000000E+00    -0.281733933167390E+04    -0.182408959985711E+05
    -0.552500000000000E+01     0.757019230769231E+01    -0.863190846213395E+04    -0.152848159457953E+05    -0.767275739884135E+04     0.187832885404886E+05     0.000000000000000E+00    -0.359555761471266E+04    -0.203211667932166E+05
    -0.595000000000000E+01     0.735769230769231E+01    -0.898420850380397E+04    -0.177785896419637E+05    -0.787454359343710E+04     0.205692247366063E+05     0.000000000000000E+00    -0.436232363768837E+04    -0.224004745080793E+05
    -0.637500000000000E+01     0.714519230769231E+01    -0.939740927643096E+04    -0.201974165159941E+05    -0.800374102125914E+04     0.223298713992741E+05     0.000000000000000E+00    -0.514236709471370E+04    -0.244524586977114E+05
    -0.680000000000000E+01     0.693269230769231E+01    -0.986012820310972E+04    -0.225508925530230E+05    -0.806157544987273E+04     0.240494737500504E+05     0.000000000000000E+00    -0.594622806007510E+04    -0.264647926960576E+05
    -0.722500000000000E+01     0.672019230769231E+01    -0.103612906479338E+05    -0.248482147595688E+05    -0.805016401027414E+04     0.257244235542681E+05     0.000000000000000E+00    -0.677549219592430E+04    -0.284340132115783E+05
    -0.765000000000000E+01     0.650769230769231E+01    -0.108901903698206E+05    -0.270981855125228E+05    -0.797243577159895E+04     0.273584119029368E+05     0.000000000000000E+00    -0.762605226425721E+04    -0.303623236180861E+05
    -0.807500000000000E+01     0.629519230769231E+01    -0.114365499763367E+05    -0.293092169081383E+05    -0.783205231583030E+04     0.289594833798195E+05     0.000000000000000E+00    -0.849016072007983E+04    -0.322556061643952E+05
    -0.850000000000000E+01     0.608269230769231E+01    -0.119905813775229E+05    -0.314893351110216E+05    -0.763332831250720E+04     0.305381717807729E+05     0.000000000000000E+00    -0.935779161575238E+04    -0.341221248727921E+05
    -0.892500000000000E+01     0.587019230769231E+01    -0.125430462397196E+05    -0.336461847031210E+05    -0.738115209343284E+04     0.321062660894419E+05     0.000000000000000E+00    -0.102176197240513E+05    -0.359716112187893E+05
    -0.935000000000000E+01     0.565769230769231E+01    -0.130853164393918E+05    -0.357870330327172E+05    -0.708090622738285E+04     0.336759600746097E+05     0.000000000000000E+00    -0.110577885451904E+05    -0.378145609269187E+05
    -0.977500000000000E+01     0.544519230769231E+01    -0.136094345169543E+05    -0.379187745634139E+05    -0.673838809481362E+04     0.352592500661502E+05     0.000000000000000E+00    -0.118665552062214E+05    -0.396616538741468E+05
    -0.102000000000000E+02     0.523269230769231E+01    -0.141081741305970E+05    -0.400479352231264E+05    -0.635973046257056E+04     0.368675055286615E+05     0.000000000000000E+00    -0.126328487959847E+05    -0.415232605577387E+05
    -0.106250000000000E+02     0.502019230769231E+01    -0.145751005101098E+05    -0.421806767530731E+05    -0.595132205859642E+04     0.385111691032869E+05     0.000000000000000E+00    -0.133467478175464E+05    -0.434090294456365E+05
    -0.110500000000000E+02     0.480769230769231E+01    -0.150046309107083E+05    -0.443228010567643E+05    -0.551972814663959E+04     0.401995593002834E+05     0.000000000000000E+00    -0.139998667125298E+05    -0.453275652549428E+05
    -0.258000000000000E+01     0.912051282051282E+01    -0.898054601015773E+04     0.663735081217412E+04    -0.438021233277901E+04     0.155521846388025E+05     0.778194557499692E+04     0.000000000000000E+00    -0.101251407729805E+05
    -0.301000000000000E+01     0.890551282051282E+01    -0.852989906512849E+04     0.329634992285084E+04    -0.503942119768485E+04     0.137087538100094E+05     0.515244722316567E+04     0.000000000000000E+00    -0.103859963654433E+05
    -0.344000000000000E+01     0.869051282051282E+01    -0.823172186415703E+04     0.112707419797167E+03    -0.564797112013784E+04     0.128218741713077E+05     0.296238374768276E+04     0.000000000000000E+00    -0.110813981920426E+05
    -0.387000000000000E+01     0.847551282051282E+01    -0.807331626911438E+04    -0.292666002891329E+04    -0.619826743055120E+04     0.128596842847050E+05     0.121123653462863E+04     0.000000000000000E+00    -0.122112128326563E+05
    -0.430000000000000E+01     0.826051282051282E+01    -0.804188177146338E+04    -0.583437986064269E+04    -0.668424209889485E+04     0.136319380516964E+05     0.000000000000000E+00    -0.163371882466722E+03    -0.137128897496393E+05
    -0.473000000000000E+01     0.804551282051282E+01    -0.812457958685456E+04    -0.862262822909246E+04    -0.710126952609569E+04     0.148858109752852E+05     0.000000000000000E+00    -0.126796938354404E+04    -0.154792384324030E+05
    -0.516000000000000E+01     0.783051282051282E+01    -0.830859674972196E+04    -0.113031346152073E+05    -0.744608233543766E+04     0.164077076702310E+05     0.000000000000000E+00    -0.221073853388619E+04    -0.174009928310431E+05
    -0.559000000000000E+01     0.761551282051282E+01    -0.858121020787903E+04    -0.138871864380780E+05    -0.771668716396200E+04     0.180544740199198E+05     0.000000000000000E+00    -0.307419791088814E+04    -0.193941987350689E+05
    -0.602000000000000E+01     0.740051282051282E+01    -0.892985091711444E+04    -0.163856336658456E+05    -0.791228045386738E+04     0.197413907351201E+05     0.000000000000000E+00    -0.391123692763776E+04    -0.214042476553222E+05
    -0.645000000000000E+01     0.718551282051282E+01    -0.934216793578797E+04    -0.188088934266044E+05    -0.803316424391009E+04     0.214226496004826E+05     0.000000000000000E+00    -0.475155885320066E+04    -0.233995025091917E+05
    -0.688000000000000E+01     0.697051282051282E+01    -0.980609251942633E+04    -0.211669546193058E+05    -0.808066196080421E+04     0.230765161187354E+05     0.000000000000000E+00    -0.560905452927752E+04    -0.253639926094546E+05
    -0.731000000000000E+01     0.675551282051282E+01    -0.103099022153191E+05    -0.234693825246619E+05    -0.805703421062177E+04     0.246958774233384E+05     0.000000000000000E+00    -0.648729740483358E+04    -0.272919873351474E+05
    -0.774000000000000E+01     0.654051282051282E+01    -0.108422849571144E+05    -0.257253234160490E+05    -0.796539457019299E+04     0.262824780573948E+05     0.000000000000000E+00    -0.738317488816996E+04    -0.291844334849934E+05
    -0.817000000000000E+01     0.632551282051282E+01    -0.113924031594149E+05    -0.279435091704106E+05    -0.780962537850636E+04     0.278433758370492E+05     0.000000000000000E+00    -0.828924683127502E+04    -0.310466654985505E+05
    -0.860000000000000E+01     0.611051282051282E+01    -0.119499578123739E+05    -0.301322618791620E+05    -0.759429352810890E+04     0.293886937783522E+05     0.000000000000000E+00    -0.919533678170153E+04    -0.328868829098344E+05
    -0.903000000000000E+01     0.589551282051282E+01    -0.125052525762906E+05    -0.322994984590924E+05    -0.732456625650624E+04     0.309301369044032E+05     0.000000000000000E+00    -0.100896863977976E+05    -0.347150646375854E+05
    -0.946000000000000E+01     0.568051282051282E+01    -0.130492578762063E+05    -0.344527352632700E+05    -0.700612693756292E+04     0.324799771435473E+05     0.000000000000000E+00    -0.109598658249650E+05    -0.365421273145113E+05
    -0.989000000000000E+01     0.546551282051282E+01    -0.135736749965005E+05    -0.365990926919442E+05    -0.664509087290245E+04     0.340503413719201E+05     0.000000000000000E+00    -0.117935399904210E+05    -0.383792276980237E+05
    -0.103200000000000E+02     0.525051282051282E+01    -0.140710001754864E+05    -0.387452998034500E+05    -0.624792108330754E+04     0.356527100800747E+05     0.000000000000000E+00    -0.125791303786689E+05    -0.402371696002675E+05
    -0.107500000000000E+02     0.503551282051282E+01    -0.145345887000066E+05    -0.408976989251113E+05    -0.582134410012028E+04     0.372975730415563E+05     0.000000000000000E+00    -0.133063748235272E+05    -0.421259128015907E+05
    -0.111800000000000E+02     0.482051282051282E+01    -0.149587190000296E+05    -0.430622502641440E+05    -0.537226575664230E+04     0.389942084007781E+05     0.000000000000000E+00    -0.139667697737729E+05    -0.440541994904007E+05
    -0.261000000000000E+01     0.918333333333333E+01    -0.910619236406076E+04     0.811521338985776E+04    -0.440966752732197E+04     0.167634610102510E+05     0.917867051451065E+04     0.000000000000000E+00    -0.101696494887136E+05
    -0.304500000000000E+01     0.896583333333333E+01    -0.860807625813689E+04     0.475522912094774E+04    -0.507527539767790E+04     0.146601438206951E+05     0.646422021039775E+04     0.000000000000000E+00    -0.103170673475869E+05
    -0.348000000000000E+01     0.874833333333333E+01    -0.827121752304051E+04     0.155635102132967E+04    -0.568910562856661E+04     0.134464104583207E+05     0.415995982963211E+04     0.000000000000000E+00    -0.108748263313429E+05
    -0.391500000000000E+01     0.853083333333333E+01    -0.808201709634119E+04    -0.149509708289828E+04    -0.624319305143312E+04     0.131302434813889E+05     0.227007863503248E+04     0.000000000000000E+00    -0.118471928142720E+05
    -0.435000000000000E+01     0.831333333333333E+01    -0.802678795490415E+04    -0.441230770892644E+04    -0.673118184165868E+04     0.135796742514808E+05     0.750023593044516E+03     0.000000000000000E+00    -0.131891192568751E+05
    -0.478500000000000E+01     0.809583333333333E+01    -0.809182302359072E+04    -0.720799460252011E+04    -0.714823629892353E+04     0.145739087382976E+05     0.000000000000000E+00    -0.488025656041396E+03    -0.148117919700694E+05
    -0.522000000000000E+01     0.787833333333333E+01    -0.826346308395901E+04    -0.989439762330701E+04    -0.749095162756965E+04     0.158985850260208E+05     0.000000000000000E+00    -0.154372344509374E+04    -0.166141372621723E+05
    -0.565500000000000E+01     0.766083333333333E+01    -0.852816468296441E+04    -0.124832876300628E+05    -0.775726471696353E+04     0.173962064223150E+05     0.000000000000000E+00    -0.250035887757422E+04    -0.185110934354530E+05
    -0.609000000000000E+01     0.744333333333333E+01    -0.887256804166019E+04    -0.149859713659984E+05    -0.794636492185896E+04     0.189676539728896E+05     0.000000000000000E+00    -0.341527296182511E+04    -0.204432664458335E+05
    -0.652500000000000E+01     0.722583333333333E+01    -0.928356496389809E+04    -0.174132963440460E+05    -0.805860484275976E+04     0.205565886322165E+05     0.000000000000000E+00    -0.432267610988590E+04    -0.223741851980581E+05
    -0.696000000000000E+01     0.700833333333333E+01    -0.974836674502884E+04    -0.197756557321458E+05    -0.809541110628255E+04     0.221344507966815E+05     0.000000000000000E+00    -0.523981022792217E+04    -0.242842122492524E+05
    -0.739500000000000E+01     0.679083333333333E+01    -0.102545720806028E+05    -0.220829932385328E+05    -0.805919514551957E+04     0.236899783070830E+05     0.000000000000000E+00    -0.617235764029673E+04    -0.261652076788388E+05
    -0.783000000000000E+01     0.657333333333333E+01    -0.107902349750703E+05    -0.243448079970228E+05    -0.795326398040136E+04     0.252225270808486E+05     0.000000000000000E+00    -0.711831001370044E+04    -0.280167329583927E+05
    -0.826500000000000E+01     0.635583333333333E+01    -0.113439326504828E+05    -0.265701594522999E+05    -0.778173099805958E+04     0.267378775137133E+05     0.000000000000000E+00    -0.807059424277828E+04    -0.298434978600044E+05
    -0.870000000000000E+01     0.613833333333333E+01    -0.119048334551926E+05    -0.287676722452019E+05    -0.754942673318976E+04     0.282455520574468E+05     0.000000000000000E+00    -0.901889109869967E+04    -0.316536146016948E+05
    -0.913500000000000E+01     0.592083333333333E+01    -0.124627647725542E+05    -0.309455410980074E+05    -0.726180964841408E+04     0.297570438429292E+05     0.000000000000000E+00    -0.995097742633928E+04    -0.334573284442224E+05
    -0.957000000000000E+01     0.570333333333333E+01    -0.130082809296244E+05    -0.331115356997230E+05    -0.692487691464411E+04     0.312846091807728E+05     0.000000000000000E+00    -0.108537978215295E+05    -0.352660188078179E+05
    -0.100050000000000E+02     0.548583333333333E+01    -0.135327311058629E+05    -0.352730055913685E+05    -0.654507519144360E+04     0.328404272574774E+05     0.000000000000000E+00    -0.117143738383150E+05    -0.370913628589165E+05
    -0.104400000000000E+02     0.526833333333333E+01    -0.140283272418333E+05    -0.374368850512646E+05    -0.612921140739121E+04     0.344360153118941E+05     0.000000000000000E+00    -0.125205897540422E+05    -0.389446225390556E+05
    -0.108750000000000E+02     0.505083333333333E+01    -0.144882119479030E+05    -0.396096979803187E+05    -0.568436354044332E+04     0.360818337475787E+05     0.000000000000000E+00    -0.132618503377168E+05    -0.408360595905049E+05
    -0.113100000000000E+02     0.483333333333333E+01    -0.149065264129444E+05    -0.417975627873123E+05    -0.521779139829676E+04     0.377870394738959E+05     0.000000000000000E+00    -0.139295861967203E+05    -0.427745030035363E+05
    -0.264000000000000E+01     0.924615384615385E+01    -0.924124420159191E+04     0.959562170846551E+04    -0.443695938718334E+04     0.180336313495092E+05     0.105884080831736E+05     0.000000000000000E+00    -0.102340305763000E+05
    -0.308000000000000E+01     0.902615384615385E+01    -0.869282824565162E+04     0.621715573008807E+04    -0.510882579988848E+04     0.157023328960861E+05     0.779969695614390E+04     0.000000000000000E+00    -0.102753694717074E+05
    -0.352000000000000E+01     0.880615384615385E+01    -0.831491653543289E+04     0.300358851833353E+04    -0.572779784879487E+04     0.141970762273570E+05     0.539634240970988E+04     0.000000000000000E+00    -0.107076704268092E+05
    -0.396000000000000E+01     0.858615384615385E+01    -0.809295883434262E+04    -0.593695670839224E+02    -0.628552598897957E+04     0.135477873784559E+05     0.338322425189403E+04     0.000000000000000E+00    -0.115355526533206E+05
    -0.440000000000000E+01     0.836615384615385E+01    -0.801233298612118E+04    -0.298549541196504E+04    -0.677535623639400E+04     0.136713655410233E+05     0.172761512901474E+04     0.000000000000000E+00    -0.127254435271009E+05
    -0.484000000000000E+01     0.814615384615385E+01    -0.805841681709856E+04    -0.578805832020496E+04    -0.719223570142358E+04     0.143868647510429E+05     0.358031984862670E+03     0.000000000000000E+00    -0.142045071221662E+05
    -0.528000000000000E+01     0.792615384615385E+01    -0.821666003845060E+04    -0.847982518637183E+04    -0.753261812244741E+04     0.154908393566281E+05     0.000000000000000E+00    -0.814475310961483E+03    -0.158820099138609E+05
    -0.572000000000000E+01     0.770615384615385E+01    -0.847265614845508E+04    -0.110730656682860E+05    -0.779436939939785E+04     0.168177581915749E+05     0.000000000000000E+00    -0.187078986642358E+04    -0.176749319503175E+05
    -0.616000000000000E+01     0.748615384615385E+01    -0.881221433474794E+04    -0.135795573595995E+05    -0.797667312732027E+04     0.182558339190719E+05     0.000000000000000E+00    -0.287067089143453E+04    -0.195211008029129E+05
    -0.660000000000000E+01     0.726615384615385E+01    -0.922143137657942E+04    -0.160105909623750E+05    -0.807993612993263E+04     0.197380180699785E+05     0.000000000000000E+00    -0.385196302754299E+04    -0.213800593114114E+05
    -0.704000000000000E+01     0.704615384615385E+01    -0.968676354707024E+04    -0.183769754596643E+05    -0.810569399318514E+04     0.212282835954145E+05     0.000000000000000E+00    -0.483501020887952E+04    -0.232287287978550E+05
    -0.748000000000000E+01     0.682615384615385E+01    -0.101950985154678E+05    -0.206890432880883E+05    -0.805651659881993E+04     0.227106162515426E+05     0.000000000000000E+00    -0.582759333252014E+04    -0.250565484710359E+05
    -0.792000000000000E+01     0.660615384615385E+01    -0.107338272494022E+05    -0.229566555104157E+05    -0.793591365793070E+04     0.241815318358755E+05     0.000000000000000E+00    -0.682884940172199E+04    -0.268616333580959E+05
    -0.836000000000000E+01     0.638615384615385E+01    -0.112909159171427E+05    -0.251892069881421E+05    -0.774824024452235E+04     0.256452216499944E+05     0.000000000000000E+00    -0.783209092230409E+04    -0.286480319829807E+05
    -0.880000000000000E+01     0.616615384615385E+01    -0.118549777898536E+05    -0.273956315540690E+05    -0.749860232907064E+04     0.271103971512841E+05     0.000000000000000E+00    -0.882683178250374E+04    -0.304237775614188E+05
    -0.924000000000000E+01     0.594615384615385E+01    -0.124153451438504E+05    -0.295844071848831E+05    -0.719276231208188E+04     0.285881934805206E+05     0.000000000000000E+00    -0.980032248931734E+04    -0.321994298394162E+05
    -0.968000000000000E+01     0.572615384615385E+01    -0.129621411628563E+05    -0.317635611737352E+05    -0.683704455765250E+04     0.300907409853003E+05     0.000000000000000E+00    -0.107388016635107E+05    -0.339869006730809E+05
    -0.101200000000000E+02     0.550615384615385E+01    -0.134863518402581E+05    -0.339406753028198E+05    -0.643824092702876E+04     0.316301766647658E+05     0.000000000000000E+00    -0.116285732195039E+05    -0.357984539235740E+05
    -0.105600000000000E+02     0.528615384615385E+01    -0.139798978813622E+05    -0.361228910159534E+05    -0.600351631216642E+04     0.332179634666622E+05     0.000000000000000E+00    -0.124569415288170E+05    -0.376458473684986E+05
    -0.110000000000000E+02     0.506615384615385E+01    -0.144357066056512E+05    -0.383169145911542E+05    -0.554031416929030E+04     0.348644385470621E+05     0.000000000000000E+00    -0.132129863675653E+05    -0.395396348292402E+05
    -0.114400000000000E+02     0.484615384615384E+01    -0.148477838490399E+05    -0.405290223132211E+05    -0.505626205245403E+04     0.365785391972263E+05     0.000000000000000E+00    -0.138881390181996E+05    -0.414886671440614E+05
    -0.267000000000000E+01     0.930897435897436E+01    -0.938611821692735E+04     0.110786425184272E+05    -0.446199494667298E+04     0.193532731161083E+05     0.120091921824649E+05     0.000000000000000E+00    -0.103166678809650E+05
    -0.311500000000000E+01     0.908647435897436E+01    -0.878444876634040E+04     0.768219714333207E+04    -0.513997351035183E+04     0.168203609758341E+05     0.915489987184079E+04     0.000000000000000E+00    -0.102571514948491E+05
    -0.356000000000000E+01     0.886397435897436E+01    -0.836300855841219E+04     0.445448792686552E+04    -0.576394395116311E+04     0.150567076451273E+05     0.666520045098443E+04     0.000000000000000E+00    -0.105737210825311E+05
    -0.400500000000000E+01     0.864147435897436E+01    -0.810624387110446E+04     0.138059062257429E+04    -0.632515810099538E+04     0.141007623710730E+05     0.454335021287945E+04     0.000000000000000E+00    -0.112690034614096E+05
    -0.445000000000000E+01     0.841897435897436E+01    -0.799854682485438E+04    -0.155387578050976E+04    -0.681665319156892E+04     0.139054958653983E+05     0.276369631953588E+04     0.000000000000000E+00    -0.123161189249000E+05
    -0.489500000000000E+01     0.819647435897436E+01    -0.802433146409614E+04    -0.436275453110010E+04    -0.723315189720330E+04     0.143307638733715E+05     0.126770842405213E+04     0.000000000000000E+00    -0.136547944192484E+05
    -0.534000000000000E+01     0.797397435897436E+01    -0.816810983878277E+04    -0.705935658888763E+04    -0.757096237758487E+04     0.151937272499785E+05     0.000000000000000E+00    -0.225011158754915E+02    -0.152049653117949E+05
    -0.578500000000000E+01     0.775147435897436E+01    -0.841456808590786E+04    -0.965646609777206E+04    -0.782787832053434E+04     0.163286355561054E+05     0.000000000000000E+00    -0.118304890221579E+04    -0.168879852814641E+05
    -0.623000000000000E+01     0.752897435897436E+01    -0.874864251102725E+04    -0.121663458590930E+05    -0.800307898477430E+04     0.176144124645618E+05     0.000000000000000E+00    -0.227400793038963E+04    -0.186409804397306E+05
    -0.667500000000000E+01     0.730647435897436E+01    -0.915559566978081E+04    -0.146007428048620E+05    -0.809702924269678E+04     0.189740288972512E+05     0.000000000000000E+00    -0.333567022428328E+04    -0.204206682503596E+05
    -0.712000000000000E+01     0.708397435897436E+01    -0.962109244941410E+04    -0.169708934709934E+05    -0.811137962313077E+04     0.203637311969594E+05     0.000000000000000E+00    -0.439097341195215E+04    -0.222010125084553E+05
    -0.756500000000000E+01     0.686147435897436E+01    -0.101312761503002E+05    -0.192875294705360E+05    -0.804886635410976E+04     0.217622841389948E+05     0.000000000000000E+00    -0.544962455700391E+04    -0.239691810638323E+05
    -0.801000000000000E+01     0.663897435897436E+01    -0.106728445674613E+05    -0.215608829669047E+05    -0.791321140563928E+04     0.231629462090161E+05     0.000000000000000E+00    -0.651185154453187E+04    -0.257218759898342E+05
    -0.845500000000000E+01     0.641647435897436E+01    -0.112331260720907E+05    -0.238006921471115E+05    -0.770902253246445E+04     0.245680071996015E+05     0.000000000000000E+00    -0.757130919463628E+04    -0.274625090245659E+05
    -0.890000000000000E+01     0.619397435897436E+01    -0.118001556930741E+05    -0.260162066949974E+05    -0.744169331683750E+04     0.259851456393656E+05     0.000000000000000E+00    -0.861727132443793E+04    -0.291990910636335E+05
    -0.934500000000000E+01     0.597147435897436E+01    -0.123627511985117E+05    -0.282161932644635E+05    -0.711730321128535E+04     0.274249779843173E+05     0.000000000000000E+00    -0.963635478465563E+04    -0.309425896783195E+05
    -0.979000000000000E+01     0.574897435897436E+01    -0.129105891772399E+05    -0.304089409527026E+05    -0.674251758137710E+04     0.288993821528881E+05     0.000000000000000E+00    -0.106139684866506E+05    -0.327055616432918E+05
    -0.102350000000000E+02     0.552647435897436E+01    -0.134342811203528E+05    -0.326022667734308E+05    -0.632448774849158E+04     0.304203406758384E+05     0.000000000000000E+00    -0.115355885562712E+05    -0.345009593375124E+05
    -0.106800000000000E+02     0.530397435897436E+01    -0.139254495027241E+05    -0.348035211301185E+05    -0.587075103258492E+04     0.319991516130172E+05     0.000000000000000E+00    -0.123878753450542E+05    -0.363410952877884E+05
    -0.111250000000000E+02     0.508147435897436E+01    -0.143768038645290E+05    -0.370195932892224E+05    -0.538913079495807E+04     0.336459141199981E+05     0.000000000000000E+00    -0.131595898439294E+05    -0.382368073098220E+05
    -0.115700000000000E+02     0.485897435897436E+01    -0.147822168927654E+05    -0.392569168534160E+05    -0.488763648102432E+04     0.353692262955277E+05     0.000000000000000E+00    -0.138422482948819E+05    -0.401968854512996E+05
    -0.270000000000000E+01     0.937179487179487E+01    -0.954124591793846E+04     0.125643437964587E+05    -0.448467935281649E+04     0.207150826538168E+05     0.134395254253576E+05     0.000000000000000E+00    -0.104164275468373E+05
    -0.315000000000000E+01     0.914679487179487E+01    -0.888324287575489E+04     0.915042193529519E+04    -0.516861763671738E+04     0.180019851925892E+05     0.105267543463172E+05     0.000000000000000E+00    -0.102595752867769E+05
    -0.360000000000000E+01     0.892179487179487E+01    -0.841569158021069E+04     0.590911839711925E+04    -0.579743802289166E+04     0.160094261556533E+05     0.796139369867178E+04     0.000000000000000E+00    -0.104679668817632E+05
    -0.405000000000000E+01     0.869679487179487E+01    -0.812198039586974E+04     0.282485266589321E+04    -0.636197909773251E+04     0.147754556690634E+05     0.574387717207074E+04     0.000000000000000E+00    -0.110410049020473E+05
    -0.450000000000000E+01     0.847179487179487E+01    -0.798546310559763E+04    -0.117380625989579E+03    -0.685495842012153E+04     0.142763939910908E+05     0.385219347264955E+04     0.000000000000000E+00    -0.119550372042368E+05
    -0.495000000000000E+01     0.824679487179487E+01    -0.798953936346185E+04    -0.293201748540933E+04    -0.727086682100285E+04     0.144083486093062E+05     0.223728212452770E+04     0.000000000000000E+00    -0.131588389733989E+05
    -0.540000000000000E+01     0.802179487179487E+01    -0.811773514763203E+04    -0.563293034622344E+04    -0.760586270295725E+04     0.150149370270245E+05     0.831333924306459E+03     0.000000000000000E+00    -0.145819994181619E+05
    -0.585000000000000E+01     0.779679487179487E+01    -0.835378321328016E+04    -0.823343385697115E+04    -0.785766633977625E+04     0.159381167780682E+05     0.000000000000000E+00    -0.435711787321972E+03    -0.161515052829293E+05
    -0.630000000000000E+01     0.757179487179487E+01    -0.868170354548078E+04    -0.107462906685779E+05    -0.802545417603624E+04     0.170523421846382E+05     0.000000000000000E+00    -0.162242465608559E+04    -0.178055695579731E+05
    -0.675000000000000E+01     0.734679487179487E+01    -0.908588381211122E+04    -0.131837172220590E+05    -0.810975312667256E+04     0.182724450710289E+05     0.000000000000000E+00    -0.277022309563120E+04    -0.194993779385390E+05
    -0.720000000000000E+01     0.712179487179487E+01    -0.955115981675183E+04    -0.155573895362241E+05    -0.811233487655366E+04     0.195472719498926E+05     0.000000000000000E+00    -0.390391768905001E+04    -0.212046316639260E+05
    -0.765000000000000E+01     0.689679487179487E+01    -0.100628959515861E+05    -0.178784489953819E+05    -0.803611018005517E+04     0.208501568788969E+05     0.000000000000000E+00    -0.503480182921646E+04    -0.229065431177516E+05
    -0.810000000000000E+01     0.667179487179487E+01    -0.106070656503011E+05    -0.201575081370430E+05    -0.788502316063398E+04     0.221707856103446E+05     0.000000000000000E+00    -0.616402631117197E+04    -0.246005474761722E+05
    -0.855000000000000E+01     0.644679487179487E+01    -0.111703318409875E+05    -0.224046564396259E+05    -0.766394561040246E+04     0.235092680311219E+05     0.000000000000000E+00    -0.728546411424913E+04    -0.262895241663643E+05
    -0.900000000000000E+01     0.622179487179487E+01    -0.117401273990398E+05    -0.246294661101596E+05    -0.737857128970242E+04     0.248720337959170E+05     0.000000000000000E+00    -0.838800761837175E+04    -0.279815858908276E+05
    -0.945000000000000E+01     0.599679487179487E+01    -0.123047356000566E+05    -0.268409978719885E+05    -0.703531022667934E+04     0.262690135492704E+05     0.000000000000000E+00    -0.945746658599303E+04    -0.296882668860521E+05
    -0.990000000000000E+01     0.577179487179487E+01    -0.128533705727408E+05    -0.290478067524770E+05    -0.664118301685644E+04     0.277116928982090E+05     0.000000000000000E+00    -0.104782320673496E+05    -0.314229452578681E+05
    -0.103500000000000E+02     0.554679487179487E+01    -0.133762577517999E+05    -0.312579478707129E+05    -0.620371512270877E+04     0.292117690835559E+05     0.000000000000000E+00    -0.114347872625814E+05    -0.331994183599314E+05
    -0.108000000000000E+02     0.532179487179487E+01    -0.138647143308461E+05    -0.334789822252122E+05    -0.573083117323734E+04     0.307802421608480E+05     0.000000000000000E+00    -0.123130498295075E+05    -0.350306467265508E+05
    -0.112500000000000E+02     0.509679487179487E+01    -0.143112297152967E+05    -0.357179824816226E+05    -0.523074926354320E+04     0.324268334845421E+05     0.000000000000000E+00    -0.131014619350698E+05    -0.369277502618495E+05
    -0.117000000000000E+02     0.487179487179487E+01    -0.147095459752739E+05    -0.379815387604289E+05    -0.471187525440164E+04     0.341596566733275E+05     0.000000000000000E+00    -0.137917309760421E+05    -0.388993537596606E+05
    -0.273000000000000E+01     0.943461538461538E+01    -0.970707384581674E+04     0.140527947550887E+05    -0.450491585051235E+04     0.221134040790904E+05     0.148782571742693E+05     0.000000000000000E+00    -0.105325362649974E+05
    -0.318500000000000E+01     0.920711538461538E+01    -0.898952712037654E+04     0.106218998714154E+05    -0.519465527255724E+04     0.192373475794480E+05     0.119128732938885E+05     0.000000000000000E+00    -0.102805005428496E+05
    -0.364000000000000E+01     0.897961538461539E+01    -0.847317205531459E+04     0.736755022239377E+04    -0.582817205173127E+04     0.170412655050239E+05     0.928079015509283E+04     0.000000000000000E+00    -0.103864119880136E+05
    -0.409500000000000E+01     0.875211538461538E+01    -0.814028250119898E+04     0.427348682702877E+04    -0.639587652502985E+04     0.155575058562600E+05     0.697910202305739E+04     0.000000000000000E+00    -0.108458976972276E+05
    -0.455000000000000E+01     0.852461538461538E+01    -0.797311921184169E+04     0.132405924749436E+04    -0.689015542221426E+04     0.147750929035229E+05     0.498712590389706E+04     0.000000000000000E+00    -0.116361858682444E+05
    -0.500500000000000E+01     0.829711538461538E+01    -0.795401486723858E+04    -0.149578052733556E+04    -0.730526016118757E+04     0.146187116193445E+05     0.326221841053995E+04     0.000000000000000E+00    -0.127120138051141E+05
    -0.546000000000000E+01     0.806961538461539E+01    -0.806545909650956E+04    -0.420048419835558E+04    -0.763719514337047E+04     0.149598500468586E+05     0.174492511495024E+04     0.000000000000000E+00    -0.140108684098154E+05
    -0.591500000000000E+01     0.784211538461538E+01    -0.829018350083872E+04    -0.680391327269704E+04    -0.788360604907715E+04     0.156546613427646E+05     0.371505403843817E+03     0.000000000000000E+00    -0.154656021773796E+05
    -0.637000000000000E+01     0.761461538461538E+01    -0.861124667641433E+04    -0.931934518019660E+04    -0.804366813289116E+04     0.165787326052582E+05     0.000000000000000E+00    -0.913839668419721E+03    -0.170167521881912E+05
    -0.682500000000000E+01     0.738711538461538E+01    -0.901211923736907E+04    -0.117594793898648E+05    -0.811797451904127E+04     0.176417218296224E+05     0.000000000000000E+00    -0.215242168085383E+04    -0.186191769463800E+05
    -0.728000000000000E+01     0.715961538461538E+01    -0.947676883872004E+04    -0.141364435263546E+05    -0.810842449677734E+04     0.187861656320624E+05     0.000000000000000E+00    -0.337009684107482E+04    -0.202431155239999E+05
    -0.773500000000000E+01     0.693211538461538E+01    -0.998974519930892E+04    -0.164617994864295E+05    -0.801811181574617E+04     0.199801656738978E+05     0.000000000000000E+00    -0.457927080966704E+04    -0.218722738760713E+05
    -0.819000000000000E+01     0.670461538461538E+01    -0.105362651247421E+05    -0.187465495554321E+05    -0.785121298136738E+04     0.212097152870885E+05     0.000000000000000E+00    -0.578173816528155E+04    -0.235010765148927E+05
    -0.864500000000000E+01     0.647711538461538E+01    -0.111022975303306E+05    -0.210011425237532E+05    -0.761287555020927E+04     0.224725540917875E+05     0.000000000000000E+00    -0.697137547444223E+04    -0.251320645796415E+05
    -0.910000000000000E+01     0.624961538461538E+01    -0.116746484640304E+05    -0.232354798032994E+05    -0.730910642536465E+04     0.237736827198384E+05     0.000000000000000E+00    -0.813646756277168E+04    -0.267736607045581E+05
    -0.955500000000000E+01     0.602211538461538E+01    -0.122410461293826E+05    -0.254589215439619E+05    -0.694666015182678E+04     0.251221879081868E+05     0.000000000000000E+00    -0.926175433984578E+04    -0.284382133334987E+05
    -0.100100000000000E+02     0.579461538461538E+01    -0.127902259084531E+05    -0.276802927500854E+05    -0.653292721186515E+04     0.265290162256456E+05     0.000000000000000E+00    -0.103303282041883E+05    -0.301401904543502E+05
    -0.104650000000000E+02     0.556711538461539E+01    -0.133120153847733E+05    -0.299078893969356E+05    -0.607582232040138E+04     0.280054310556530E+05     0.000000000000000E+00    -0.113254312339907E+05    -0.318944735477182E+05
    -0.109200000000000E+02     0.533961538461538E+01    -0.137974193662797E+05    -0.321494845471689E+05    -0.558367272038509E+04     0.295619759193418E+05     0.000000000000000E+00    -0.122320844856211E+05    -0.337148194278275E+05
    -0.113750000000000E+02     0.511211538461538E+01    -0.142387049082542E+05    -0.344123344672998E+05    -0.506510647816978E+04     0.312078245985717E+05     0.000000000000000E+00    -0.130383971123995E+05    -0.356126422631545E+05
    -0.118300000000000E+02     0.488461538461538E+01    -0.146294863362643E+05    -0.367031847441701E+05    -0.452894077888863E+04     0.329504296611053E+05     0.000000000000000E+00    -0.137364007151866E+05    -0.375962703652477E+05
    -0.276000000000000E+01     0.949743589743590E+01    -0.988406379469869E+04     0.155440658521855E+05    -0.452260576768921E+04     0.235438554110528E+05     0.163244964718722E+05     0.000000000000000E+00    -0.106644944143854E+05
    -0.322000000000000E+01     0.926743589743590E+01    -0.910362971166238E+04     0.120967019172197E+05    -0.521798148167466E+04     0.205185808090411E+05     0.133113931072770E+05     0.000000000000000E+00    -0.103183209017197E+05
    -0.368000000000000E+01     0.903743589743590E+01    -0.853566503956330E+04     0.882985484806160E+04    -0.585603590961367E+04     0.181403436395382E+05     0.106200828645477E+05     0.000000000000000E+00    -0.103258930560494E+05
    -0.414000000000000E+01     0.880743589743590E+01    -0.816127028503044E+04     0.572656446304097E+04    -0.642673574745301E+04     0.164330371722632E+05     0.824419669068391E+04     0.000000000000000E+00    -0.106789025126734E+05
    -0.460000000000000E+01     0.857743589743590E+01    -0.796155635031706E+04     0.277051405117684E+04    -0.692212546798839E+04     0.153904903868770E+05     0.616291220179067E+04     0.000000000000000E+00    -0.113539545009309E+05
    -0.506000000000000E+01     0.834743589743590E+01    -0.791773433163776E+04    -0.539760878279048E+02    -0.733620934224043E+04     0.149574718645999E+05     0.433758403990716E+04     0.000000000000000E+00    -0.123092944593728E+05
    -0.552000000000000E+01     0.811743589743590E+01    -0.801120531750545E+04    -0.276195510359237E+04    -0.766483346083061E+04     0.150309757889394E+05     0.271516830037978E+04     0.000000000000000E+00    -0.134883287214776E+05
    -0.598000000000000E+01     0.788743589743590E+01    -0.822365018706835E+04    -0.536784805506375E+04    -0.790556775535731E+04     0.154852483054996E+05     0.123773723224506E+04     0.000000000000000E+00    -0.148292354743772E+05
    -0.644000000000000E+01     0.765743589743590E+01    -0.853711940844705E+04    -0.788546237052343E+04    -0.805758801977173E+04     0.162024061432911E+05     0.000000000000000E+00    -0.147117719213047E+03    -0.162754640597574E+05
    -0.690000000000000E+01     0.742743589743590E+01    -0.893412283707147E+04    -0.103279943075926E+05    -0.812155793175388E+04     0.170907447818240E+05     0.000000000000000E+00    -0.147965239560907E+04    -0.177824647490550E+05
    -0.736000000000000E+01     0.719743589743590E+01    -0.939771951401791E+04    -0.127080354132384E+05    -0.809951107408858E+04     0.180884212317798E+05     0.000000000000000E+00    -0.278597795550290E+04    -0.193197769717534E+05
    -0.782000000000000E+01     0.696743589743590E+01    -0.991160746434604E+04    -0.150375789837794E+05    -0.799473295604141E+04     0.191590560632461E+05     0.000000000000000E+00    -0.407907947903646E+04    -0.208701069690890E+05
    -0.828000000000000E+01     0.673743589743590E+01    -0.104602134954359E+05    -0.173280265248925E+05    -0.781164303473471E+04     0.202851426768185E+05     0.000000000000000E+00    -0.536103845342208E+04    -0.224272015669064E+05
    -0.874000000000000E+01     0.650743589743590E+01    -0.110287829953250E+05    -0.195901942116178E+05    -0.755567673652356E+04     0.214620249662328E+05     0.000000000000000E+00    -0.662544050074535E+04    -0.239935367061974E+05
    -0.920000000000000E+01     0.627743589743590E+01    -0.116034697310451E+05    -0.218343193483650E+05    -0.723316747837171E+04     0.226931770111517E+05     0.000000000000000E+00    -0.785964610977443E+04    -0.255781429696357E+05
    -0.966000000000000E+01     0.604743589743590E+01    -0.121714256469595E+05    -0.240700668289197E+05    -0.685122868922765E+04     0.239867191245253E+05     0.000000000000000E+00    -0.904695154958810E+04    -0.271945409262911E+05
    -0.101200000000000E+02     0.581743589743590E+01    -0.127208906630999E+05    -0.263065355964483E+05    -0.641763583140047E+04     0.253529181810656E+05     0.000000000000000E+00    -0.101687419298063E+05    -0.288586843297420E+05
    -0.105800000000000E+02     0.558743589743590E+01    -0.132412824735036E+05    -0.285522651035051E+05    -0.594070842193596E+04     0.268024410502749E+05     0.000000000000000E+00    -0.112066466568041E+05    -0.305869009202046E+05
    -0.110400000000000E+02     0.535743589743590E+01    -0.137232863445500E+05    -0.308152417720376E+05    -0.542919205399250E+04     0.283451884105017E+05     0.000000000000000E+00    -0.121445486823960E+05    -0.323939794341916E+05
    -0.115000000000000E+02     0.512743589743590E+01    -0.141589449132982E+05    -0.331029054533922E+05    -0.489214041821705E+04     0.299895810131452E+05     0.000000000000000E+00    -0.129701818646215E+05    -0.342916685020690E+05
    -0.119600000000000E+02     0.489743589743590E+01    -0.145417479858238E+05    -0.354221558883211E+05    -0.433879732412118E+04     0.317421956530516E+05     0.000000000000000E+00    -0.136760675946838E+05    -0.362878362794611E+05
    -0.279000000000000E+01     0.956025641025641E+01    -0.100726930312907E+05     0.170382288004843E+05    -0.453764850046310E+04     0.250030397313148E+05     0.177775492594871E+05     0.000000000000000E+00    -0.108120134902934E+05
    -0.325500000000000E+01     0.932775641025641E+01    -0.922589070009081E+04     0.135749002475912E+05    -0.523848928241260E+04     0.218394329545627E+05     0.147208503341883E+05     0.000000000000000E+00    -0.103718407866880E+05
    -0.372000000000000E+01     0.909525641025641E+01    -0.860339432524899E+04     0.102961048805379E+05    -0.588091733630212E+04     0.192967662077719E+05     0.119766273441217E+05     0.000000000000000E+00    -0.102839167888328E+05
    -0.418500000000000E+01     0.886275641025641E+01    -0.818506995274027E+04     0.718415803245967E+04    -0.645443993143412E+04     0.173893564371803E+05     0.953513505602585E+04     0.000000000000000E+00    -0.105360469763064E+05
    -0.465000000000000E+01     0.863025641025641E+01    -0.795081962523686E+04     0.422205501963390E+04    -0.695074758031844E+04     0.161105169062544E+05     0.737453598914358E+04     0.000000000000000E+00    -0.111033005947465E+05
    -0.511500000000000E+01     0.839775641025641E+01    -0.788067616804350E+04     0.139346432267025E+04    -0.736358950725448E+04     0.154173795457222E+05     0.545839792078083E+04     0.000000000000000E+00    -0.119456097661541E+05
    -0.558000000000000E+01     0.816525641025641E+01    -0.795489797503284E+04    -0.131727923229834E+04    -0.768864911691338E+04     0.152276977971229E+05     0.373826634979130E+04     0.000000000000000E+00    -0.130104435571225E+05
    -0.604500000000000E+01     0.793275641025641E+01    -0.815406379458072E+04    -0.392518129242392E+04    -0.792341946292016E+04     0.154347450201457E+05     0.216107485303927E+04     0.000000000000000E+00    -0.142403199400439E+05
    -0.651000000000000E+01     0.770025641025641E+01    -0.845916751550154E+04    -0.644459479695300E+04    -0.806707871643587E+04     0.159313429203816E+05     0.677841153098710E+03     0.000000000000000E+00    -0.155816034655532E+05
    -0.697500000000000E+01     0.746775641025641E+01    -0.885171295298361E+04    -0.888922679603519E+04    -0.812036563473973E+04     0.166285088142768E+05     0.000000000000000E+00    -0.750082576851290E+03    -0.169908571721675E+05
    -0.744000000000000E+01     0.723525641025641E+01    -0.931380863452443E+04    -0.112721452695325E+05    -0.808545502981137E+04     0.174626869477268E+05     0.000000000000000E+00    -0.214844789055993E+04    -0.184375060134970E+05
    -0.790500000000000E+01     0.700275641025641E+01    -0.982826258586611E+04    -0.136057859458281E+05    -0.796583323691285E+04     0.183944126618020E+05     0.000000000000000E+00    -0.353033263600847E+04    -0.199037158956857E+05
    -0.837000000000000E+01     0.677025641025641E+01    -0.103786771169307E+05    -0.159019591206352E+05    -0.776617358317096E+04     0.194033064116397E+05     0.000000000000000E+00    -0.489773884121125E+04    -0.213828973963546E+05
    -0.883500000000000E+01     0.653775641025641E+01    -0.109495436077554E+05    -0.181718564758061E+05    -0.749221185615927E+04     0.204825548595004E+05     0.000000000000000E+00    -0.624362788334805E+04    -0.228777722002134E+05
    -0.930000000000000E+01     0.630525641025641E+01    -0.115263372944280E+05    -0.204260578981412E+05    -0.715062177248035E+04     0.216341589841819E+05     0.000000000000000E+00    -0.755404535121630E+04    -0.243983498413529E+05
    -0.976500000000000E+01     0.607275641025641E+01    -0.120956120550224E+05    -0.226745382981979E+05    -0.674889044634789E+04     0.228652283174849E+05     0.000000000000000E+00    -0.881034822052331E+04    -0.259598021326970E+05
    -0.102300000000000E+02     0.584025641025641E+01    -0.126450951955336E+05    -0.249266744290993E+05    -0.629519385816888E+04     0.241852384042450E+05     0.000000000000000E+00    -0.999163880543700E+04    -0.275801308191959E+05
    -0.106950000000000E+02     0.560775641025641E+01    -0.131637822358132E+05    -0.271912517053436E+05    -0.579827232312577E+04     0.256040915028500E+05     0.000000000000000E+00    -0.110773830780042E+05    -0.292776508631527E+05
    -0.111600000000000E+02     0.537525641025641E+01    -0.136420316955048E+05    -0.294764710216128E+05    -0.526730595975860E+04     0.271308303769308E+05     0.000000000000000E+00    -0.120499464803483E+05    -0.310685562367693E+05
    -0.116250000000000E+02     0.514275641025641E+01    -0.140716598799792E+05    -0.317899555715818E+05    -0.471179015854718E+04     0.287728751450486E+05     0.000000000000000E+00    -0.128965929058782E+05    -0.329650225456828E+05
    -0.120900000000000E+02     0.491025641025641E+01    -0.144460356662700E+05    -0.341387576667269E+05    -0.414141105049322E+04     0.305356654931640E+05     0.000000000000000E+00    -0.136105377254729E+05    -0.349742556075240E+05
    -0.282000000000000E+01     0.962307692307692E+01    -0.102734545144939E+05     0.185353565771132E+05    -0.454994149829464E+04     0.264883249134542E+05     0.192368726108056E+05     0.000000000000000E+00    -0.109749705481862E+05
    -0.329000000000000E+01     0.938807692307692E+01    -0.935666214920749E+04     0.150565682560368E+05    -0.525606963196212E+04     0.231949434241480E+05     0.161400893462041E+05     0.000000000000000E+00    -0.104401832393748E+05
    -0.376000000000000E+01     0.915307692307692E+01    -0.867659257621607E+04     0.117663740962476E+05    -0.590270192304202E+04     0.205024028400534E+05     0.133483060109145E+05     0.000000000000000E+00    -0.102585244908830E+05
    -0.423000000000000E+01     0.891807692307692E+01    -0.821181391920290E+04     0.864634110385063E+04    -0.647887002841166E+04     0.184152794464184E+05     0.108485901577331E+05     0.000000000000000E+00    -0.104140629730854E+05
    -0.470000000000000E+01     0.868307692307692E+01    -0.794095811253971E+04     0.567875441879107E+04    -0.697589851756663E+04     0.169230995638280E+05     0.861760588730309E+04     0.000000000000000E+00    -0.108798095810517E+05
    -0.517000000000000E+01     0.844807692307692E+01    -0.784282089401667E+04     0.284661012147341E+04    -0.738727350042536E+04     0.159891810736939E+05     0.661988746461486E+04     0.000000000000000E+00    -0.116160982371581E+05
    -0.564000000000000E+01     0.821307692307692E+01    -0.789646179757223E+04     0.133608039380808E+03    -0.770851125513355E+04     0.155463959848926E+05     0.481004314427239E+04     0.000000000000000E+00    -0.125728969024638E+05
    -0.611000000000000E+01     0.797807692307692E+01    -0.808130414602309E+04    -0.247585544630565E+04    -0.793702685586865E+04     0.155054307241266E+05     0.313876296102873E+04     0.000000000000000E+00    -0.136959225533575E+05
    -0.658000000000000E+01     0.774307692307692E+01    -0.837723504379407E+04    -0.499669459408807E+04    -0.807200280064438E+04     0.157720710887842E+05     0.156010997438022E+04     0.000000000000000E+00    -0.149340396122624E+05
    -0.705000000000000E+01     0.750807692307692E+01    -0.876470536964803E+04    -0.744314149553157E+04    -0.811425763911521E+04     0.162636713077990E+05     0.371950287938625E+02     0.000000000000000E+00    -0.162450418939735E+05
    -0.752000000000000E+01     0.727307692307692E+01    -0.922482976941578E+04    -0.982875326864602E+04    -0.806611460038078E+04     0.169180351572279E+05     0.000000000000000E+00    -0.145502680214856E+04    -0.175985562359132E+05
    -0.799000000000000E+01     0.703807692307692E+01    -0.973948664872600E+04    -0.121664192512663E+05    -0.793127022079046E+04     0.176946269150660E+05     0.000000000000000E+00    -0.292939091187893E+04    -0.189765149881134E+05
    -0.846000000000000E+01     0.680307692307692E+01    -0.102914181657351E+05    -0.144683681944331E+05    -0.771466297174783E+04     0.185713492538896E+05     0.000000000000000E+00    -0.438753729128530E+04    -0.203722490688829E+05
    -0.893000000000000E+01     0.656807692307692E+01    -0.108643302238573E+05    -0.167461754557736E+05    -0.742234188751508E+04     0.195398454639712E+05     0.000000000000000E+00    -0.582150779577657E+04    -0.217889978838543E+05
    -0.940000000000000E+01     0.633307692307692E+01    -0.114429924644942E+05    -0.190107701928823E+05    -0.706133519301760E+04     0.206009398798238E+05     0.000000000000000E+00    -0.721562239861232E+04    -0.232381402587641E+05
    -0.987000000000000E+01     0.609807692307692E+01    -0.120133382597649E+05    -0.212724425567019E+05    -0.663951893164840E+04     0.217608293812021E+05     0.000000000000000E+00    -0.854869713533051E+04    -0.247370836811363E+05
    -0.103400000000000E+02     0.586307692307692E+01    -0.125625647052363E+05    -0.235408508849035E+05    -0.616548559307262E+04     0.230281538056300E+05     0.000000000000000E+00    -0.979677566578776E+04    -0.263066399243520E+05
    -0.108100000000000E+02     0.562807692307692E+01    -0.130792326126520E+05    -0.258250288952684E+05    -0.564841274103198E+04     0.244118942834592E+05     0.000000000000000E+00    -0.109363573180037E+05    -0.279679041899166E+05
    -0.112800000000000E+02     0.539307692307692E+01    -0.135533665026633E+05    -0.281333928790674E+05    -0.509793164114929E+04     0.259199937276912E+05     0.000000000000000E+00    -0.119476953831804E+05    -0.297390639985502E+05
    -0.117500000000000E+02     0.515807692307692E+01    -0.139765545975584E+05    -0.304737488944428E+05    -0.452399588873296E+04     0.275585749139616E+05     0.000000000000000E+00    -0.128173946424949E+05    -0.316329088495062E+05
    -0.122200000000000E+02     0.492307692307692E+01    -0.143420488139926E+05    -0.328532999597887E+05    -0.393675003658144E+04     0.293316220700175E+05     0.000000000000000E+00    -0.135396126652562E+05    -0.336557361085251E+05
    -0.285000000000000E+01     0.968589743589744E+01    -0.104868571150291E+05     0.200355234331202E+05    -0.455938024914631E+04     0.279976764683610E+05     0.207020409928117E+05     0.000000000000000E+00    -0.111533746747207E+05
    -0.332500000000000E+01     0.944839743589744E+01    -0.949630830967111E+04     0.165417805639530E+05    -0.527061141067097E+04     0.245811769020812E+05     0.175681931396409E+05     0.000000000000000E+00    -0.105227208853589E+05
    -0.380000000000000E+01     0.921089743589744E+01    -0.875550146296058E+04     0.132407374505948E+05    -0.592127309621144E+04     0.217506242545496E+05     0.147334188754848E+05     0.000000000000000E+00    -0.102481828878505E+05
    -0.427500000000000E+01     0.897339743589744E+01    -0.824164091085113E+04     0.101131883643805E+05    -0.649990475797021E+04     0.195011993566532E+05     0.121818264250855E+05     0.000000000000000E+00    -0.103102789715561E+05
    -0.475000000000000E+01     0.873589743589744E+01    -0.793202493413264E+04     0.714068555392881E+04    -0.699745275633734E+04     0.178168330751532E+05     0.988834681325914E+04     0.000000000000000E+00    -0.106796861934630E+05
    -0.522500000000000E+01     0.849839743589744E+01    -0.780415118429900E+04     0.430553166090691E+04    -0.740713184954374E+04     0.166625389815162E+05     0.781764936277992E+04     0.000000000000000E+00    -0.113162688861720E+05
    -0.570000000000000E+01     0.826089743589744E+01    -0.783582210941562E+04     0.159077213579466E+04    -0.772428668331440E+04     0.159809100457143E+05     0.592621937536408E+04     0.000000000000000E+00    -0.121712693489850E+05
    -0.617500000000000E+01     0.802339743589744E+01    -0.800525037998707E+04    -0.101981234635034E+04    -0.794625328052171E+04     0.156967837880733E+05     0.416744716956089E+04     0.000000000000000E+00    -0.131925098958983E+05
    -0.665000000000000E+01     0.778589743589744E+01    -0.829116431482464E+04    -0.354171347012860E+04    -0.807222053083873E+04     0.157290954780792E+05     0.249783856491925E+04     0.000000000000000E+00    -0.143307163498725E+05
    -0.712500000000000E+01     0.754839743589744E+01    -0.867291330691398E+04    -0.598970286403364E+04    -0.810309168039243E+04     0.160040018838182E+05     0.882095554372496E+03     0.000000000000000E+00    -0.155447117253201E+05
    -0.760000000000000E+01     0.731089743589744E+01    -0.913057324928265E+04    -0.837783968468820E+04    -0.804134582141696E+04     0.164636209440669E+05     0.000000000000000E+00    -0.704057737027892E+03    -0.168043551969430E+05
    -0.807500000000000E+01     0.707339743589744E+01    -0.964505196086774E+04    -0.107194782010789E+05    -0.789089938190697E+04     0.170687783732343E+05     0.000000000000000E+00    -0.227310008131671E+04    -0.180914300806300E+05
    -0.855000000000000E+01     0.683589743589744E+01    -0.101981946123834E+05    -0.130272753787925E+05    -0.765696761527082E+04     0.177973550492432E+05     0.000000000000000E+00    -0.382620319015478E+04    -0.193992668010212E+05
    -0.902500000000000E+01     0.659839743589744E+01    -0.107728891521886E+05    -0.153131984642504E+05    -0.734592608998390E+04     0.186405388502733E+05     0.000000000000000E+00    -0.535433570595649E+04    -0.207317519104825E+05
    -0.950000000000000E+01     0.636089743589744E+01    -0.113531717321545E+05    -0.175885325689448E+05    -0.696517217924188E+04     0.195986281661818E+05     0.000000000000000E+00    -0.683976083424831E+04    -0.221019434668510E+05
    -0.997500000000000E+01     0.612339743589744E+01    -0.119243321335322E+05    -0.198638882536737E+05    -0.652298655061398E+04     0.206772390082313E+05     0.000000000000000E+00    -0.825811049574350E+04    -0.235301098914624E+05
    -0.104500000000000E+02     0.588589743589744E+01    -0.124730191928204E+05    -0.221492091127769E+05    -0.602839465569624E+04     0.218842589116243E+05     0.000000000000000E+00    -0.958138550512967E+04    -0.250408428004675E+05
    -0.109250000000000E+02     0.564839743589743E+01    -0.129873462276326E+05    -0.244537793583704E+05    -0.549102821976481E+04     0.232276335551802E+05     0.000000000000000E+00    -0.107819758220302E+05    -0.266591497639727E+05
    -0.114000000000000E+02     0.541089743589744E+01    -0.134569964625652E+05    -0.267862314045833E+05    -0.492098673142920E+04     0.247139445784997E+05     0.000000000000000E+00    -0.118370960570903E+05    -0.284061318100582E+05
    -0.118750000000000E+02     0.517339743589744E+01    -0.138733284550648E+05    -0.291545534517920E+05    -0.432869893228556E+04     0.263476647302406E+05     0.000000000000000E+00    -0.127323355309262E+05    -0.302955463759306E+05
    -0.123500000000000E+02     0.493589743589744E+01    -0.142294815212959E+05    -0.315660970708561E+05    -0.372478430656995E+04     0.281309347173861E+05     0.000000000000000E+00    -0.134630885690374E+05    -0.323324900231146E+05
    -0.288000000000000E+01     0.974871794871795E+01    -0.107134258350618E+05     0.215388049030008E+05    -0.456585826463963E+04     0.295295307066570E+05     0.221727211147299E+05     0.000000000000000E+00    -0.113473420467909E+05
    -0.336000000000000E+01     0.950871794871795E+01    -0.964520579329920E+04     0.180306130298942E+05    -0.528200140635203E+04     0.259950108838536E+05     0.190044312602797E+05     0.000000000000000E+00    -0.106190240236848E+05
    -0.384000000000000E+01     0.926871794871795E+01    -0.884037179772974E+04     0.147192710869307E+05    -0.593651210097169E+04     0.230360472222915E+05     0.161305970222234E+05     0.000000000000000E+00    -0.102516977330224E+05
    -0.432000000000000E+01     0.902871794871795E+01    -0.827469606773646E+04     0.115847756283832E+05    -0.651742059098032E+04     0.206390026936960E+05     0.135325995116814E+05     0.000000000000000E+00    -0.102225199510347E+05
    -0.480000000000000E+01     0.878871794871795E+01    -0.792407733213394E+04     0.860792277769023E+04    -0.701528247423153E+04     0.187813670016735E+05     0.111835529092891E+05     0.000000000000000E+00    -0.104997074637329E+05
    -0.528000000000000E+01     0.854871794871795E+01    -0.776465192181722E+04     0.577030023555816E+04    -0.742303274848776E+04     0.174268414419916E+05     0.904773070998144E+04     0.000000000000000E+00    -0.110420823962405E+05
    -0.576000000000000E+01     0.830871794871795E+01    -0.777290486241075E+04     0.305427928806239E+04    -0.773583985595719E+04     0.165232245379031E+05     0.708262543726258E+04     0.000000000000000E+00    -0.118012510116109E+05
    -0.624000000000000E+01     0.806871794871795E+01    -0.792578096691736E+04     0.443006814749795E+03    -0.795095972783067E+04     0.160055838923414E+05     0.524342860523270E+04     0.000000000000000E+00    -0.127262027574003E+05
    -0.672000000000000E+01     0.782871794871795E+01    -0.820079592836720E+04    -0.207960270325988E+04    -0.806758982881862E+04     0.158044747087269E+05     0.348843077654948E+04     0.000000000000000E+00    -0.137688294081766E+05
    -0.720000000000000E+01     0.758871794871795E+01    -0.857614741246671E+04    -0.452887517517232E+04    -0.808672320168798E+04     0.158557872746789E+05     0.178356663776271E+04     0.000000000000000E+00    -0.148885892254017E+05
    -0.768000000000000E+01     0.734871794871795E+01    -0.903082615024755E+04    -0.691938489241645E+04    -0.801100251179904E+04     0.161082100168667E+05     0.105161014517450E+03     0.000000000000000E+00    -0.160553720571814E+05
    -0.816000000000000E+01     0.710871794871795E+01    -0.954472703071555E+04    -0.926496252054349E+04    -0.784457409164250E+04     0.165263981080983E+05     0.000000000000000E+00    -0.155902361245248E+04    -0.172506659388066E+05
    -0.864000000000000E+01     0.686871794871795E+01    -0.100987601934997E+05    -0.115787030911242E+05    -0.759294198537623E+04     0.170903212617287E+05     0.000000000000000E+00    -0.320981784424438E+04    -0.184676454403796E+05
    -0.912000000000000E+01     0.662871794871795E+01    -0.106749621215012E+05    -0.138729739936478E+05    -0.726282199336233E+04     0.177923158062956E+05     0.000000000000000E+00    -0.483720778909296E+04    -0.197107283260560E+05
    -0.960000000000000E+01     0.638871794871795E+01    -0.112566067335420E+05    -0.161594229674199E+05    -0.686199571670395E+04     0.186332721779235E+05     0.000000000000000E+00    -0.642128808382790E+04    -0.209947416171339E+05
    -0.100800000000000E+02     0.614871794871795E+01    -0.118283164770143E+05    -0.184489860934610E+05    -0.639916460178222E+04     0.196189101421496E+05     0.000000000000000E+00    -0.793395669467809E+04    -0.223433458757972E+05
    -0.105600000000000E+02     0.590871794871795E+01    -0.123761734205292E+05    -0.207518957864042E+05    -0.588380398479321E+04     0.207566672228928E+05     0.000000000000000E+00    -0.934203137589724E+04    -0.237860378310361E+05
    -0.110400000000000E+02     0.566871794871795E+01    -0.128878303465656E+05    -0.230776887863942E+05    -0.532601713628483E+04     0.220534334855512E+05     0.000000000000000E+00    -0.106122261874132E+05    -0.253532929455466E+05
    -0.115200000000000E+02     0.542871794871795E+01    -0.133526218441195E+05    -0.254352141509847E+05    -0.473638930569371E+04     0.235141656007923E+05     0.000000000000000E+00    -0.117172883419956E+05    -0.270705476531086E+05
    -0.120000000000000E+02     0.518871794871795E+01    -0.137616754013525E+05    -0.278326412470374E+05    -0.412584176588216E+04     0.251412721449362E+05     0.000000000000000E+00    -0.126411427384628E+05    -0.289531739099270E+05
    -0.124800000000000E+02     0.494871794871795E+01    -0.141080224982409E+05    -0.302774677426196E+05    -0.350548585767509E+04     0.269345771993674E+05     0.000000000000000E+00    -0.133807549379516E+05    -0.310047353029090E+05
    -0.291000000000000E+01     0.981153846153846E+01    -0.109537020278266E+05     0.230452778142235E+05    -0.456926706521244E+04     0.310826982180497E+05     0.236486529750046E+05     0.000000000000000E+00    -0.115570771886076E+05
    -0.339500000000000E+01     0.956903846153846E+01    -0.980374374711400E+04     0.195231427588386E+05    -0.529012429859183E+04     0.274339685184390E+05     0.204482203827065E+05     0.000000000000000E+00    -0.107288213709819E+05
    -0.388000000000000E+01     0.932653846153846E+01    -0.893146366962135E+04     0.162020523455219E+05    -0.594829798491792E+04     0.243543082870006E+05     0.175387347660689E+05     0.000000000000000E+00    -0.102681460901684E+05
    -0.436500000000000E+01     0.908403846153846E+01    -0.831113104558931E+04     0.130611798459252E+05    -0.653129173273826E+04     0.218219112505862E+05     0.148990688710656E+05     0.000000000000000E+00    -0.101490200707297E+05
    -0.485000000000000E+01     0.884153846153846E+01    -0.791717674311605E+04     0.100805414980875E+05    -0.702925753260116E+04     0.198075697035746E+05     0.125005232526389E+05     0.000000000000000E+00    -0.103371584976674E+05
    -0.533500000000000E+01     0.859903846153846E+01    -0.772431024868711E+04     0.724098808952986E+04    -0.743484203971555E+04     0.182718128358362E+05     0.103066522805506E+05     0.000000000000000E+00    -0.107899744397079E+05
    -0.582000000000000E+01     0.835653846153846E+01    -0.770763666770529E+04     0.452419654034954E+04    -0.774303285661061E+04     0.171642230799714E+05     0.827534605173707E+04     0.000000000000000E+00    -0.114587861790928E+05
    -0.630500000000000E+01     0.811403846153846E+01    -0.784277372502052E+04     0.191266148631470E+04    -0.795100481579565E+04     0.164263013991357E+05     0.636289149099769E+04     0.000000000000000E+00    -0.122930037297035E+05
    -0.679000000000000E+01     0.787153846153846E+01    -0.810596876545974E+04    -0.610313138040743E+03    -0.805796626241974E+04     0.159976402440438E+05     0.452876141113804E+04     0.000000000000000E+00    -0.132450433146385E+05
    -0.727500000000000E+01     0.762903846153846E+01    -0.847421575435676E+04    -0.306062251632329E+04    -0.806500533693156E+04     0.158232834944916E+05     0.273969900310468E+04     0.000000000000000E+00    -0.142745372737847E+05
    -0.776000000000000E+01     0.738653846153846E+01    -0.892537227808211E+04    -0.545336936718502E+04    -0.797493625773906E+04     0.158596021680967E+05     0.972326878722485E+03     0.000000000000000E+00    -0.153510685239896E+05
    -0.824500000000000E+01     0.714403846153846E+01    -0.943827654457296E+04    -0.780287236122892E+04    -0.779214560386933E+04     0.160770897044796E+05     0.000000000000000E+00    -0.785641790610541E+03    -0.164555071151913E+05
    -0.873000000000000E+01     0.690153846153846E+01    -0.999286438386296E+04    -0.101226745379148E+05    -0.752243859762821E+04     0.164600307381463E+05     0.000000000000000E+00    -0.253505086159842E+04    -0.175804880601793E+05
    -0.921500000000000E+01     0.665903846153846E+01    -0.105702862486121E+05    -0.124255517224643E+05    -0.717288538726018E+04     0.170039555050630E+05     0.000000000000000E+00    -0.426529931674682E+04    -0.187305386543295E+05
    -0.970000000000000E+01     0.641653846153846E+01    -0.111530242146366E+05    -0.147235209427669E+05    -0.675166732960800E+04     0.177120091371382E+05     0.000000000000000E+00    -0.595456844328098E+04    -0.199219767141225E+05
    -0.101850000000000E+02     0.617403846153846E+01    -0.117250089814388E+05    -0.170278488462849E+05    -0.626792327277254E+04     0.185911908642121E+05     0.000000000000000E+00    -0.757077759959269E+04    -0.211820802281310E+05
    -0.106700000000000E+02     0.593153846153846E+01    -0.122717368727371E+05    -0.193490601169595E+05    -0.573159583877247E+04     0.196491386928387E+05     0.000000000000000E+00    -0.907442663216679E+04    -0.225463703575298E+05
    -0.111550000000000E+02     0.568903846153846E+01    -0.127803868369954E+05    -0.216969458921159E+05    -0.515327770620407E+04     0.208918453090633E+05     0.000000000000000E+00    -0.104245246384743E+05    -0.240528080906370E+05
    -0.116400000000000E+02     0.544653846153846E+01    -0.132399374479537E+05    -0.240805721793687E+05    -0.454405789290095E+04     0.223224106482217E+05     0.000000000000000E+00    -0.115871859974383E+05    -0.257333236298842E+05
    -0.121250000000000E+02     0.520403846153846E+01    -0.136412839051574E+05    -0.265082882735278E+05    -0.391536803859378E+04     0.239407019159325E+05     0.000000000000000E+00    -0.125435141362422E+05    -0.276060580424431E+05
    -0.126100000000000E+02     0.496153846153846E+01    -0.139773550344874E+05    -0.289877351735036E+05    -0.327882868757011E+04     0.257436503000415E+05     0.000000000000000E+00    -0.132923927524287E+05    -0.296726974555623E+05
    -0.294000000000000E+01     0.987435897435897E+01    -0.112082436172528E+05     0.245550202967578E+05    -0.456949616527609E+04     0.326562900814520E+05     0.251296354298373E+05     0.000000000000000E+00    -0.117828587503324E+05
    -0.343000000000000E+01     0.962935897435897E+01    -0.997232402738821E+04     0.210194481114557E+05    -0.529486264305902E+04     0.288960880412609E+05     0.218990942619455E+05     0.000000000000000E+00    -0.108519701778780E+05
    -0.392000000000000E+01     0.938435897435897E+01    -0.902904657968328E+04     0.176891597725185E+05    -0.595650758172966E+04     0.257018725164319E+05     0.189569366547524E+05     0.000000000000000E+00    -0.102968234619172E+05
    -0.441000000000000E+01     0.913935897435897E+01    -0.835110411787924E+04     0.145424791113710E+05    -0.654139010610583E+04     0.230442997169418E+05     0.162797241619297E+05     0.000000000000000E+00    -0.100883491684379E+05
    -0.490000000000000E+01     0.889435897435897E+01    -0.791138887234846E+04     0.115586181865084E+05    -0.703924545930370E+04     0.208875412981148E+05     0.138369934638233E+05     0.000000000000000E+00    -0.101897641496634E+05
    -0.539000000000000E+01     0.864935897435898E+01    -0.768311561721765E+04     0.871766842369171E+04    -0.744242319675765E+04     0.191879090018601E+05     0.115913945319538E+05     0.000000000000000E+00    -0.105568417254797E+05
    -0.588000000000000E+01     0.840435897435897E+01    -0.763994482749109E+04     0.600059175614247E+04    -0.774572538024024E+04     0.178943799372460E+05     0.950080413328967E+04     0.000000000000000E+00    -0.111401572046383E+05
    -0.637000000000000E+01     0.815935897435897E+01    -0.775610583617375E+04     0.338921176473831E+04    -0.794624477188201E+04     0.169516794802365E+05     0.752208396886736E+04     0.000000000000000E+00    -0.118889780403028E+05
    -0.686000000000000E+01     0.791435897435897E+01    -0.800651999139450E+04     0.866204818207858E+03    -0.804320302819140E+04     0.163054992015403E+05     0.561539772266483E+04     0.000000000000000E+00    -0.127557128958515E+05
    -0.735000000000000E+01     0.766935897435897E+01    -0.836692381352933E+04    -0.158490878667458E+04    -0.803778889407472E+04     0.159083214014275E+05     0.374790065475397E+04     0.000000000000000E+00    -0.136997332549579E+05
    -0.784000000000000E+01     0.742435897435897E+01    -0.881399215232448E+04    -0.397977368489289E+04    -0.793299639685592E+04     0.157240153178225E+05     0.189617736576421E+04     0.000000000000000E+00    -0.146899432029816E+05
    -0.833000000000000E+01     0.717935897435897E+01    -0.932546134401967E+04    -0.633320830299528E+04    -0.773346304029658E+04     0.157300037908967E+05     0.475202063260112E+02     0.000000000000000E+00    -0.157061898533410E+05
    -0.882000000000000E+01     0.693435897435897E+01    -0.988025236847128E+04    -0.865921371889827E+04    -0.744530799861575E+04     0.159167831492972E+05     0.000000000000000E+00    -0.179943552349259E+04    -0.167400305638770E+05
    -0.931000000000000E+01     0.668935897435897E+01    -0.104585940062755E+05    -0.109709825216919E+05    -0.707597031050988E+04     0.162853204310109E+05     0.000000000000000E+00    -0.363418155742949E+04    -0.177953949705378E+05
    -0.980000000000000E+01     0.644435897435898E+01    -0.110421459958915E+05    -0.132809076714448E+05    -0.663404707317269E+04     0.168432038820763E+05     0.000000000000000E+00    -0.543370444978698E+04    -0.188893492175494E+05
    -0.102900000000000E+02     0.619935897435897E+01    -0.116141221907648E+05    -0.156005913590087E+05    -0.612913163631506E+04     0.176005077928709E+05     0.000000000000000E+00    -0.716226261555768E+04    -0.200524509342159E+05
    -0.107800000000000E+02     0.595435897435897E+01    -0.121594137164502E+05    -0.179408538658237E+05    -0.557165179618494E+04     0.185662388758603E+05     0.000000000000000E+00    -0.877322640866524E+04    -0.213270411736087E+05
    -0.112700000000000E+02     0.570935897435897E+01    -0.126647121277350E+05    -0.203117424237231E+05    -0.497270798958725E+04     0.197459595159625E+05     0.000000000000000E+00    -0.102155011668794E+05    -0.227609533845787E+05
    -0.117600000000000E+02     0.546435897435897E+01    -0.131186325657625E+05    -0.227225400747379E+05    -0.434391148790373E+04     0.211407756406070E+05     0.000000000000000E+00    -0.114453776846169E+05    -0.243957949558836E+05
    -0.122500000000000E+02     0.521935897435897E+01    -0.135118369151548E+05    -0.251817745309021E+05    -0.369722259111290E+04     0.227474798453782E+05     0.000000000000000E+00    -0.124391059700648E+05    -0.262545054759921E+05
    -0.127400000000000E+02     0.497435897435897E+01    -0.138371569611360E+05    -0.276972270340579E+05    -0.304478882180988E+04     0.245594103592297E+05     0.000000000000000E+00    -0.131977716382832E+05    -0.283366123569108E+05
    -0.297000000000000E+01     0.993717948717949E+01    -0.114776253175887E+05     0.260681117926002E+05    -0.456643305837269E+04     0.342496611353270E+05     0.266155150954132E+05     0.000000000000000E+00    -0.120250286204017E+05
    -0.346500000000000E+01     0.968967948717949E+01    -0.101513613736908E+05     0.225196087133736E+05    -0.529609685581290E+04     0.303798210347714E+05     0.233566806580600E+05     0.000000000000000E+00    -0.109884333183772E+05
    -0.396000000000000E+01     0.944217948717949E+01    -0.913339957601294E+04     0.191806731289234E+05    -0.596101549482138E+04     0.270758763201779E+05     0.203844760769168E+05     0.000000000000000E+00    -0.103372025240064E+05
    -0.445500000000000E+01     0.919467948717949E+01    -0.839478027787516E+04     0.160287526719496E+05    -0.654758533465019E+04     0.243015169502921E+05     0.176733246077546E+05     0.000000000000000E+00    -0.100393522136801E+05
    -0.495000000000000E+01     0.894717948717949E+01    -0.790678376804053E+04     0.130422303857237E+05    -0.704511143145646E+04     0.220145380089305E+05     0.151910704713533E+05     0.000000000000000E+00    -0.100556238536701E+05
    -0.544500000000000E+01     0.869967948717949E+01    -0.764105984091509E+04     0.102004154029331E+05    -0.744563730670952E+04     0.201665266987163E+05     0.128993625711518E+05     0.000000000000000E+00    -0.103400070091338E+05
    -0.594000000000000E+01     0.845217948717949E+01    -0.756975736674834E+04     0.748353362452498E+04    -0.774377471559795E+04     0.187043090335408E+05     0.107557972989352E+05     0.000000000000000E+00    -0.108420210411585E+05
    -0.643500000000000E+01     0.820467948717949E+01    -0.766565386183354E+04     0.487271839855163E+04    -0.793653341543671E+04     0.175733859655316E+05     0.871744631729888E+04     0.000000000000000E+00    -0.115103817805808E+05
    -0.693000000000000E+01     0.795717948717949E+01    -0.790228505870802E+04     0.235000119901446E+04    -0.802315093407423E+04     0.167227942306355E+05     0.674479784984448E+04     0.000000000000000E+00    -0.122970817095380E+05
    -0.742500000000000E+01     0.770967948717949E+01    -0.825407447635354E+04    -0.101697695291310E+03    -0.800492233829953E+04     0.161101524653875E+05     0.480510302901610E+04     0.000000000000000E+00    -0.131608752006610E+05
    -0.792000000000000E+01     0.746217948717949E+01    -0.869646299039657E+04    -0.249857852193218E+04    -0.788503000224928E+04     0.157055296611776E+05     0.287461835432474E+04     0.000000000000000E+00    -0.140696598666535E+05
    -0.841500000000000E+01     0.721467948717949E+01    -0.920603840330868E+04    -0.485597135599187E+04    -0.766837337581491E+04     0.154931982752917E+05     0.939862140940695E+03     0.000000000000000E+00    -0.150018719002413E+05
    -0.891000000000000E+01     0.696717948717949E+01    -0.976066501460684E+04    -0.718834543122706E+04    -0.736139875304974E+04     0.154709545473682E+05     0.000000000000000E+00    -0.100159423648321E+04    -0.159474162093507E+05
    -0.940500000000000E+01     0.671967948717949E+01    -0.103396131910537E+05    -0.950931846122231E+04    -0.697192904057604E+04     0.156472185252988E+05     0.000000000000000E+00    -0.294018763283673E+04    -0.169087440194393E+05
    -0.990000000000000E+01     0.647217948717949E+01    -0.109236889368582E+05    -0.118316659605460E+05    -0.650899352599217E+04     0.160365473527685E+05     0.000000000000000E+00    -0.485287076265428E+04    -0.179024841347499E+05
    -0.103950000000000E+02     0.622467948717949E+01    -0.114953634638752E+05    -0.141673305659058E+05    -0.598265764627962E+04     0.166545669382321E+05     0.000000000000000E+00    -0.670133522361546E+04    -0.189613588061656E+05
    -0.108900000000000E+02     0.597717948717949E+01    -0.120389027618069E+05    -0.165274313573042E+05    -0.540385275621018E+04     0.175135348173354E+05     0.000000000000000E+00    -0.843181278477864E+04    -0.201345213343324E+05
    -0.113850000000000E+02     0.572967948717949E+01    -0.125404971684020E+05    -0.189222731791935E+05    -0.478420589675297E+04     0.186195503829415E+05     0.000000000000000E+00    -0.998069892557445E+04    -0.214820714220210E+05
    -0.118800000000000E+02     0.548217948717949E+01    -0.129883909396569E+05    -0.213613559616321E+05    -0.413586956348160E+04     0.199717910220508E+05     0.000000000000000E+00    -0.112899730384932E+05    -0.230597738627958E+05
    -0.123750000000000E+02     0.523467948717949E+01    -0.133730118200157E+05    -0.238533840414391E+05    -0.347135147498122E+04     0.215634095592901E+05     0.000000000000000E+00    -0.123275132792554E+05    -0.248988825821993E+05
    -0.128700000000000E+02     0.498717948717949E+01    -0.136871006125704E+05    -0.264062754833508E+05    -0.280334434125567E+04     0.233833055239056E+05     0.000000000000000E+00    -0.130966454693843E+05    -0.269967306265369E+05
    -0.300000000000000E+01     0.100000000000000E+02    -0.117624388530266E+05     0.275846330653012E+05    -0.455996320233233E+04     0.358623660966780E+05     0.281061777334371E+05     0.000000000000000E+00    -0.122839835211626E+05
    -0.350000000000000E+01     0.975000000000000E+01    -0.103412835829331E+05     0.240237054644454E+05    -0.529370519761189E+04     0.318839531028293E+05     0.248206834796221E+05     0.000000000000000E+00    -0.111382615981098E+05
    -0.400000000000000E+01     0.950000000000000E+01    -0.924481138885673E+04     0.206766733995593E+05    -0.596169408099310E+04     0.284740003364743E+05     0.218207628672864E+05     0.000000000000000E+00    -0.103889008565839E+05
    -0.450000000000000E+01     0.925000000000000E+01    -0.844233134070570E+04     0.175200809363192E+05    -0.654974472578364E+04     0.255897243201371E+05     0.190788496527879E+05     0.000000000000000E+00    -0.100011000571744E+05
    -0.500000000000000E+01     0.900000000000000E+01    -0.790343589558448E+04     0.145314567178934E+05    -0.704671825819117E+04     0.231828532447999E+05     0.165611738756436E+05     0.000000000000000E+00    -0.993315305333468E+04
    -0.550000000000000E+01     0.875000000000000E+01    -0.759813714548706E+04     0.116893041634150E+05    -0.744434305272395E+04     0.212000751540016E+05     0.142283414704325E+05     0.000000000000000E+00    -0.101371744525046E+05
    -0.600000000000000E+01     0.850000000000000E+01    -0.749700306498983E+04     0.897309166645282E+04    -0.773703572759140E+04     0.195851446327808E+05     0.120375012330668E+05     0.000000000000000E+00    -0.105614126316038E+05
    -0.650000000000000E+01     0.825000000000000E+01    -0.757129375894457E+04     0.636324279348479E+04    -0.792172214010480E+04     0.182826249066459E+05     0.994569057495499E+04     0.000000000000000E+00    -0.111537415404148E+05
    -0.700000000000000E+01     0.800000000000000E+01    -0.779309771017142E+04     0.384112648236900E+04    -0.799765838207786E+04     0.172426366126914E+05     0.791347002010582E+04     0.000000000000000E+00    -0.118654412479082E+05
    -0.750000000000000E+01     0.775000000000000E+01    -0.813546802715181E+04     0.138904724081681E+04    -0.796625177522729E+04     0.164255698139466E+05     0.590796760958376E+04     0.000000000000000E+00    -0.126543883959188E+05
    -0.800000000000000E+01     0.750000000000000E+01    -0.857255869172144E+04    -0.100976465513624E+04    -0.783088186657352E+04     0.158057031743444E+05     0.390491067092192E+04     0.000000000000000E+00    -0.134872340177796E+05
    -0.850000000000000E+01     0.725000000000000E+01    -0.907976080676324E+04    -0.337116296265699E+04    -0.759672142384123E+04     0.153729623645420E+05     0.188978295003652E+04     0.000000000000000E+00    -0.143407067194568E+05
    -0.900000000000000E+01     0.700000000000000E+01    -0.963383884390038E+04    -0.571009527364367E+04    -0.727055743085998E+04     0.151323797639707E+05     0.000000000000000E+00    -0.141366401671960E+03    -0.152025677158721E+05
    -0.950000000000000E+01     0.675000000000000E+01    -0.102130668911891E+05    -0.804061281625301E+04    -0.686061208296487E+04     0.151010882953853E+05     0.000000000000000E+00    -0.218076993398587E+04    -0.160729097734563E+05
    -0.100000000000000E+02     0.650000000000000E+01    -0.107973649008120E+05    -0.103758802564285E+05    -0.637636378239712E+04     0.153030670082058E+05     0.000000000000000E+00    -0.420677717204268E+04    -0.169664679851978E+05
    -0.105000000000000E+02     0.625000000000000E+01    -0.113684349367704E+05    -0.127281854994284E+05    -0.582836813370467E+04     0.157625535879183E+05     0.000000000000000E+00    -0.618042256578820E+04    -0.179161978704106E+05
    -0.110000000000000E+02     0.600000000000000E+01    -0.119098974225779E+05    -0.151089494913533E+05    -0.522807893914285E+04     0.164978301884033E+05     0.000000000000000E+00    -0.804213044043605E+04    -0.189767164734952E+05
    -0.115000000000000E+02     0.575000000000000E+01    -0.124074273889533E+05    -0.175287360206741E+05    -0.458766919407491E+04     0.175172614126973E+05     0.000000000000000E+00    -0.971416324716719E+04    -0.202220001624602E+05
    -0.120000000000000E+02     0.550000000000000E+01    -0.128488907215129E+05    -0.199972615197599E+05    -0.391985208237274E+04     0.188185428264036E+05     0.000000000000000E+00    -0.111183573142349E+05    -0.217277949270379E+05
    -0.125000000000000E+02     0.525000000000000E+01    -0.132244804084644E+05    -0.225234048664060E+05    -0.323770197181740E+04     0.203906464987536E+05     0.000000000000000E+00    -0.122082376436205E+05    -0.235396476312499E+05
    -0.130000000000000E+02     0.500000000000000E+01    -0.135268527882991E+05    -0.251152171853619E+05    -0.255447540949980E+04     0.222170220521311E+05     0.000000000000000E+00    -0.129887453560953E+05    -0.256533246175658E+05
