 Version
   1.400000    
 CONTROL PARAMETER
           8           2      2           1           2
           6           0          33           0          20          20
           0           0           0           0
           0           0           0
 OPTION
          1           0
 MATERIALS
   1.000000    
    1      0.2000E+11          0.1670      0.1000E+09      0.7200E+04
    2      0.2000E+11          0.2000      0.1000E+09      0.7200E+04
 CONNECTIVITY-materail
      1
      2
 OUTPUT
               0          5          2          0    0.00000
 STRESS X range:
  -175392.498159074           22582.6067329594     
 STRESS Y range:
  -551989.163971165           19999.5345155965     
 STRESS XY range:
  -121462.680684093           121462.680684091     
 »æÍ¼µÄ·¶Î§²ÎÊý
  -65.0000000000000           65.0000000000000     
  -38.0000000000000           10.0000000000000     
