 title="Stress components of modle suanli2 at STEP  1 SUB-STEP 1"
 variables="x","y","Stress11","Stress22","Stress12","Von Mises Stress","Max. Principal Stress","Mid. Principal Stress","Min. Principal Stress"
 zone I=    6 ,j=    6 ,f=point, T="    1"
     0.000000000000000E+00     0.371794871794872E+01    -0.349560267393033E+05    -0.113515263838489E+06     0.146699632062383E-08     0.100695562621514E+06     0.000000000000000E+00    -0.349560267393033E+05    -0.113515263838489E+06
     0.000000000000000E+00     0.312307692307692E+01    -0.380035948765093E+05    -0.126438403747646E+06     0.127262304200686E-08     0.112364715515737E+06     0.000000000000000E+00    -0.380035948765093E+05    -0.126438403747646E+06
     0.000000000000000E+00     0.252820512820513E+01    -0.410782091433766E+05    -0.139410520508048E+06     0.870380647672595E-09     0.124080530207343E+06     0.000000000000000E+00    -0.410782091433766E+05    -0.139410520508048E+06
     0.000000000000000E+00     0.193333333333333E+01    -0.443194966774510E+05    -0.152417677014897E+06     0.252406867892333E-09     0.135795034232897E+06     0.000000000000000E+00    -0.443194966774510E+05    -0.152417677014897E+06
     0.000000000000000E+00     0.133846153846154E+01    -0.479893195646742E+05    -0.165444350008016E+06    -0.584095150817907E-09     0.147428782668619E+06     0.000000000000000E+00    -0.479893195646742E+05    -0.165444350008016E+06
     0.000000000000000E+00     0.743589743589743E+00    -0.525017336894546E+05    -0.178471919310442E+06    -0.163730881415231E-08     0.158866525247041E+06     0.000000000000000E+00    -0.525017336894546E+05    -0.178471919310442E+06
    -0.208000000000000E+01     0.392307692307692E+01    -0.343080147191391E+05    -0.107385968239574E+06    -0.383950404513490E+04     0.952303105301299E+05     0.000000000000000E+00    -0.341068415885856E+05    -0.107587141370128E+06
    -0.240000000000000E+01     0.328717948717949E+01    -0.375834135463794E+05    -0.120712697768017E+06    -0.415322907225685E+04     0.107233488570019E+06     0.000000000000000E+00    -0.373764290964920E+05    -0.120919682217905E+06
    -0.272000000000000E+01     0.265128205128205E+01    -0.408217545236994E+05    -0.134061393154867E+06    -0.446351878809260E+04     0.119272882477363E+06     0.000000000000000E+00    -0.406085667503791E+05    -0.134274580928187E+06
    -0.304000000000000E+01     0.201538461538461E+01    -0.441309122594477E+05    -0.147420529835683E+06    -0.479654922854232E+04     0.131314767714717E+06     0.000000000000000E+00    -0.439086490339741E+05    -0.147642793061156E+06
    -0.336000000000000E+01     0.137948717948718E+01    -0.477501664239707E+05    -0.160778054503165E+06    -0.518943171760063E+04     0.143294357698222E+06     0.000000000000000E+00    -0.475124050049443E+05    -0.161015815922191E+06
    -0.368000000000000E+01     0.743589743589743E+00    -0.520867700154348E+05    -0.174119975452725E+06    -0.569515529900552E+04     0.155108847998554E+06     0.000000000000000E+00    -0.518215597615123E+05    -0.174385185706648E+06
    -0.416000000000000E+01     0.412820512820513E+01    -0.345133685773567E+05    -0.978839546068938E+05    -0.737883370691007E+04     0.869337548798316E+05     0.000000000000000E+00    -0.336655249418425E+05    -0.987317982424081E+05
    -0.480000000000000E+01     0.345128205128205E+01    -0.380040701752912E+05    -0.110732792594106E+06    -0.778932659888510E+04     0.983858969147393E+05     0.000000000000000E+00    -0.371791805851416E+05    -0.111557682184256E+06
    -0.544000000000000E+01     0.277435897435897E+01    -0.413177724777744E+05    -0.123527572415005E+06    -0.816728013080747E+04     0.109829179782513E+06     0.000000000000000E+00    -0.405142333658781E+05    -0.124331111526901E+06
    -0.608000000000000E+01     0.209743589743590E+01    -0.444699265698333E+05    -0.136270416968720E+06    -0.855758709214210E+04     0.121272265437050E+06     0.000000000000000E+00    -0.436790076564746E+05    -0.137061335882079E+06
    -0.672000000000000E+01     0.142051282051282E+01    -0.475736912639704E+05    -0.148965826505264E+06    -0.902199679026420E+04     0.132707982450503E+06     0.000000000000000E+00    -0.467771604040518E+05    -0.149762357365183E+06
    -0.736000000000000E+01     0.743589743589743E+00    -0.508728975864820E+05    -0.161620818972762E+06    -0.964951408332768E+04     0.144106074920384E+06     0.000000000000000E+00    -0.500384190121085E+05    -0.162455297547135E+06
    -0.624000000000000E+01     0.433333333333333E+01    -0.354931011552966E+05    -0.851279566270902E+05    -0.101373818690149E+05     0.761142140923070E+05     0.000000000000000E+00    -0.335024847517062E+05    -0.871185730306805E+05
    -0.720000000000000E+01     0.361538461538461E+01    -0.390477609967478E+05    -0.967954474303924E+05    -0.102886107859123E+05     0.862090907096563E+05     0.000000000000000E+00    -0.372694536525797E+05    -0.985737547745605E+05
    -0.816000000000000E+01     0.289743589743590E+01    -0.422482798749733E+05    -0.108351044634049E+06    -0.103627556816838E+05     0.962776240005617E+05     0.000000000000000E+00    -0.406618132664938E+05    -0.109937511242529E+06
    -0.912000000000000E+01     0.217948717948718E+01    -0.450046311211522E+05    -0.119822473660150E+06    -0.104128082290170E+05     0.106374599951925E+06     0.000000000000000E+00    -0.435824570447578E+05    -0.121244647736544E+06
    -0.100800000000000E+02     0.146153846153846E+01    -0.472492830233422E+05    -0.131241022320203E+06    -0.104990350787758E+05     0.116560480827543E+06     0.000000000000000E+00    -0.459567846601078E+05    -0.132533520683437E+06
    -0.110400000000000E+02     0.743589743589744E+00    -0.489531721818649E+05    -0.142644475150071E+06    -0.107029392806261E+05     0.126903973666815E+06     0.000000000000000E+00    -0.477460612873615E+05    -0.143851586044574E+06
    -0.832000000000000E+01     0.453846153846154E+01    -0.369428247281643E+05    -0.694206328232669E+05    -0.116239733251962E+05     0.634409375495439E+05     0.000000000000000E+00    -0.332112815966850E+05    -0.731521759547462E+05
    -0.960000000000000E+01     0.377948717948718E+01    -0.401494414319728E+05    -0.795063899282524E+05    -0.110915579589226E+05     0.714854846433819E+05     0.000000000000000E+00    -0.372388695140869E+05    -0.824169618461383E+05
    -0.108800000000000E+02     0.302051282051282E+01    -0.428549187965509E+05    -0.895442359798868E+05    -0.104951102289994E+05     0.796727388560223E+05     0.000000000000000E+00    -0.406042570448360E+05    -0.917948977316016E+05
    -0.121600000000000E+02     0.226153846153846E+01    -0.449503797743661E+05    -0.995966503596209E+05    -0.990087941574707E+04     0.880749929685611E+05     0.000000000000000E+00    -0.432118369422811E+05    -0.101335193191706E+06
    -0.134400000000000E+02     0.150256410256410E+01    -0.462515022894426E+05    -0.109720770910250E+06    -0.934709673838051E+04     0.967739799663369E+05     0.000000000000000E+00    -0.449035848202194E+05    -0.111068688379473E+06
    -0.147200000000000E+02     0.743589743589744E+00    -0.464826867670243E+05    -0.119974319450513E+06    -0.885661270324019E+04     0.105891772821667E+06     0.000000000000000E+00    -0.454304263429278E+05    -0.121026579874610E+06
    -0.104000000000000E+02     0.474358974358974E+01    -0.382871195232706E+05    -0.512640588459172E+05    -0.113602694664444E+05     0.501828782506140E+05     0.000000000000000E+00    -0.316929303991580E+05    -0.578582479700298E+05
    -0.120000000000000E+02     0.394358974358974E+01    -0.403267024649360E+05    -0.598030364738473E+05    -0.975719765774656E+04     0.554670673751933E+05     0.000000000000000E+00    -0.362795583470773E+05    -0.638501805917060E+05
    -0.136000000000000E+02     0.314358974358974E+01    -0.418486467846890E+05    -0.686186122141325E+05    -0.832293347914453E+04     0.616120181425116E+05     0.000000000000000E+00    -0.394719993815687E+05    -0.709952596172528E+05
    -0.152000000000000E+02     0.234358974358974E+01    -0.429739820243548E+05    -0.778077178685623E+05    -0.718760908095728E+04     0.686446049941703E+05     0.000000000000000E+00    -0.415491670992003E+05    -0.792325327937168E+05
    -0.168000000000000E+02     0.154358974358974E+01    -0.436679806627741E+05    -0.874284462577903E+05    -0.638462881631725E+04     0.765185762087914E+05     0.000000000000000E+00    -0.427554937367543E+05    -0.883409331838101E+05
    -0.184000000000000E+02     0.743589743589743E+00    -0.436785714935698E+05    -0.975070775262876E+05    -0.585369449053111E+04     0.852013798957550E+05     0.000000000000000E+00    -0.430493542380647E+05    -0.981362947817928E+05
 zone I=    6 ,j=    6 ,f=point, T="    1"
    -0.104000000000000E+02     0.474358974358974E+01    -0.382871195232706E+05    -0.512640588459172E+05    -0.113602694664444E+05     0.501828782506140E+05     0.000000000000000E+00    -0.316929303991580E+05    -0.578582479700298E+05
    -0.120000000000000E+02     0.394358974358974E+01    -0.403267024649360E+05    -0.598030364738473E+05    -0.975719765774656E+04     0.554670673751933E+05     0.000000000000000E+00    -0.362795583470773E+05    -0.638501805917060E+05
    -0.136000000000000E+02     0.314358974358974E+01    -0.418486467846890E+05    -0.686186122141325E+05    -0.832293347914453E+04     0.616120181425116E+05     0.000000000000000E+00    -0.394719993815687E+05    -0.709952596172528E+05
    -0.152000000000000E+02     0.234358974358974E+01    -0.429739820243548E+05    -0.778077178685623E+05    -0.718760908095728E+04     0.686446049941703E+05     0.000000000000000E+00    -0.415491670992003E+05    -0.792325327937168E+05
    -0.168000000000000E+02     0.154358974358974E+01    -0.436679806627741E+05    -0.874284462577903E+05    -0.638462881631725E+04     0.765185762087914E+05     0.000000000000000E+00    -0.427554937367543E+05    -0.883409331838101E+05
    -0.184000000000000E+02     0.743589743589743E+00    -0.436785714935698E+05    -0.975070775262876E+05    -0.585369449053111E+04     0.852013798957550E+05     0.000000000000000E+00    -0.430493542380647E+05    -0.981362947817928E+05
    -0.109200000000000E+02     0.479487179487179E+01    -0.385097886215734E+05    -0.464212983045348E+05    -0.109679209902443E+05     0.470228906305743E+05     0.000000000000000E+00    -0.308060714675417E+05    -0.541250154585665E+05
    -0.126000000000000E+02     0.395487179487179E+01    -0.401380918092867E+05    -0.553804086608388E+05    -0.906611047568325E+04     0.519786035570364E+05     0.000000000000000E+00    -0.359154157669494E+05    -0.596030847031762E+05
    -0.142800000000000E+02     0.311487179487179E+01    -0.413360528372193E+05    -0.647621568206459E+05    -0.749410773834558E+04     0.582604431532632E+05     0.000000000000000E+00    -0.391438095154734E+05    -0.669544001423918E+05
    -0.159600000000000E+02     0.227487179487179E+01    -0.422990881528395E+05    -0.746503759752013E+05    -0.638417442650022E+04     0.657763004972679E+05     0.000000000000000E+00    -0.410848171979464E+05    -0.758646469300945E+05
    -0.176400000000000E+02     0.143487179487179E+01    -0.430077277397476E+05    -0.850803165330104E+05    -0.574112399198005E+04     0.743511622727184E+05     0.000000000000000E+00    -0.422383763850366E+05    -0.858496678877213E+05
    -0.193200000000000E+02     0.594871794871795E+00    -0.431490132472237E+05    -0.960476136633008E+05    -0.544618276016309E+04     0.838546623645524E+05     0.000000000000000E+00    -0.425941214075070E+05    -0.966025055030174E+05
    -0.114400000000000E+02     0.484615384615385E+01    -0.386545725021371E+05    -0.414825423596898E+05    -0.104318457329495E+05     0.440222395036758E+05     0.000000000000000E+00    -0.295413185348466E+05    -0.505957963269803E+05
    -0.132000000000000E+02     0.396615384615385E+01    -0.397748387401952E+05    -0.509229852350843E+05    -0.824046722356822E+04     0.485123757030558E+05     0.000000000000000E+00    -0.354002642086409E+05    -0.552975597666387E+05
    -0.149600000000000E+02     0.308615384615385E+01    -0.406107353970077E+05    -0.609522253512774E+05    -0.658171196358993E+04     0.549458615937011E+05     0.000000000000000E+00    -0.386669029666728E+05    -0.628960577816123E+05
    -0.167200000000000E+02     0.220615384615385E+01    -0.414533356827881E+05    -0.716319937830353E+05    -0.558371658129072E+04     0.630370538749053E+05     0.000000000000000E+00    -0.404533595259401E+05    -0.726319699398833E+05
    -0.184800000000000E+02     0.132615384615385E+01    -0.423040871983153E+05    -0.829638480174340E+05    -0.520920940272748E+04     0.724177712893019E+05     0.000000000000000E+00    -0.416473075575367E+05    -0.836206276582126E+05
    -0.202400000000000E+02     0.446153846153845E+00    -0.427756260639614E+05    -0.949004878882481E+05    -0.526038264608580E+04     0.828217597020608E+05     0.000000000000000E+00    -0.422500534663734E+05    -0.954260604858361E+05
    -0.119600000000000E+02     0.489743589743590E+01    -0.387027016567367E+05    -0.364621023211774E+05    -0.974588854174725E+04     0.412449898011980E+05     0.000000000000000E+00    -0.277723349752315E+05    -0.473924690026827E+05
    -0.138000000000000E+02     0.397743589743590E+01    -0.392112216460710E+05    -0.464556190911468E+05    -0.728333032607089E+04     0.450910586829209E+05     0.000000000000000E+00    -0.346990965353565E+05    -0.509677442018614E+05
    -0.156400000000000E+02     0.305743589743590E+01    -0.396534546146693E+05    -0.572240156663529E+05    -0.560381885253169E+04     0.516920001640656E+05     0.000000000000000E+00    -0.380183733593767E+05    -0.588590969216454E+05
    -0.174800000000000E+02     0.213743589743590E+01    -0.404410529861961E+05    -0.687959079554162E+05    -0.482322537843115E+04     0.604645951639254E+05     0.000000000000000E+00    -0.396430688526730E+05    -0.695938920889394E+05
    -0.193200000000000E+02     0.121743589743590E+01    -0.416029013511861E+05    -0.811260520946997E+05    -0.484561607486018E+04     0.707643877415491E+05     0.000000000000000E+00    -0.410174903043459E+05    -0.817114631415398E+05
    -0.211600000000000E+02     0.297435897435898E+00    -0.426612437717615E+05    -0.941094768572739E+05    -0.536933688374475E+04     0.821476558203321E+05     0.000000000000000E+00    -0.421068529277492E+05    -0.946638677012862E+05
    -0.124800000000000E+02     0.494871794871795E+01    -0.386339022382711E+05    -0.313752197638504E+05    -0.890417296818103E+04     0.387645267360145E+05     0.000000000000000E+00    -0.253891351621599E+05    -0.446199868399615E+05
    -0.144000000000000E+02     0.398871794871795E+01    -0.384200583137074E+05    -0.420044174372245E+05    -0.619914056038290E+04     0.417366485089539E+05     0.000000000000000E+00    -0.337592346003258E+05    -0.466652411506061E+05
    -0.163200000000000E+02     0.302871794871795E+01    -0.384451299388805E+05    -0.536139782917432E+05    -0.458138043164837E+04     0.485206910739841E+05     0.000000000000000E+00    -0.371688240806292E+05    -0.548902841499945E+05
    -0.182400000000000E+02     0.206871794871795E+01    -0.392702845846684E+05    -0.661861490721527E+05    -0.414420708097322E+04     0.580959209215699E+05     0.000000000000000E+00    -0.386466546775999E+05    -0.668097789792212E+05
    -0.201600000000000E+02     0.110871794871795E+01    -0.409592759773935E+05    -0.796132657270099E+05    -0.471297530208191E+04     0.694382391376086E+05     0.000000000000000E+00    -0.403929335985156E+05    -0.801796081058878E+05
    -0.220800000000000E+02     0.148717948717948E+00    -0.429251968749881E+05    -0.937152371038201E+05    -0.585260797191687E+04     0.818848719210873E+05     0.000000000000000E+00    -0.422595173310193E+05    -0.943809166477889E+05
    -0.130000000000000E+02     0.500000000000000E+01    -0.384263514987687E+05    -0.262380816568090E+05    -0.790112412429038E+04     0.366615733080387E+05     0.000000000000000E+00    -0.223539280039627E+05    -0.423105051516150E+05
    -0.150000000000000E+02     0.400000000000000E+01    -0.373726858275038E+05    -0.375967480707918E+05    -0.499378319926794E+04     0.384701867632359E+05     0.000000000000000E+00    -0.324896772482538E+05    -0.424797566500419E+05
    -0.170000000000000E+02     0.300000000000000E+01    -0.369669227560820E+05    -0.501597903067059E+05    -0.353834602733799E+04     0.454517824267114E+05     0.000000000000000E+00    -0.360778484550337E+05    -0.510488646077542E+05
    -0.190000000000000E+02     0.200000000000000E+01    -0.379530705663906E+05    -0.638473481559019E+05    -0.359284695664831E+04     0.559682246429366E+05     0.000000000000000E+00    -0.374638053695805E+05    -0.643366133527120E+05
    -0.210000000000000E+02     0.100000000000000E+01    -0.404381505379283E+05    -0.784709433593825E+05    -0.487999674078518E+04     0.684920159930326E+05     0.000000000000000E+00    -0.398219796015154E+05    -0.790871142957954E+05
    -0.230000000000000E+02    -0.888178419700125E-15    -0.437042494922610E+05    -0.937549221888332E+05    -0.679641486714480E+04     0.821043976470611E+05     0.000000000000000E+00    -0.427977769103703E+05    -0.946613947707239E+05
 zone I=    6 ,j=    6 ,f=point, T="    1"
    -0.184000000000000E+02     0.743589743589743E+00    -0.436785714935698E+05    -0.975070775262876E+05    -0.585369449053111E+04     0.852013798957550E+05     0.000000000000000E+00    -0.430493542380647E+05    -0.981362947817928E+05
    -0.147200000000000E+02     0.743589743589743E+00    -0.464826867670243E+05    -0.119974319450513E+06    -0.885661270324019E+04     0.105891772821667E+06     0.000000000000000E+00    -0.454304263429278E+05    -0.121026579874610E+06
    -0.110400000000000E+02     0.743589743589743E+00    -0.489531721818649E+05    -0.142644475150071E+06    -0.107029392806261E+05     0.126903973666815E+06     0.000000000000000E+00    -0.477460612873615E+05    -0.143851586044574E+06
    -0.736000000000000E+01     0.743589743589743E+00    -0.508728975864820E+05    -0.161620818972762E+06    -0.964951408332768E+04     0.144106074920384E+06     0.000000000000000E+00    -0.500384190121085E+05    -0.162455297547135E+06
    -0.368000000000000E+01     0.743589743589743E+00    -0.520867700154348E+05    -0.174119975452725E+06    -0.569515529900552E+04     0.155108847998554E+06     0.000000000000000E+00    -0.518215597615123E+05    -0.174385185706648E+06
     0.000000000000000E+00     0.743589743589743E+00    -0.525017336894546E+05    -0.178471919310442E+06    -0.163730881415231E-08     0.158866525247041E+06     0.000000000000000E+00    -0.525017336894546E+05    -0.178471919310442E+06
    -0.193200000000000E+02     0.594871794871795E+00    -0.431490132472237E+05    -0.960476136633008E+05    -0.544618276016309E+04     0.838546623645524E+05     0.000000000000000E+00    -0.425941214075070E+05    -0.966025055030174E+05
    -0.154560000000000E+02     0.594871794871795E+00    -0.459908668796526E+05    -0.118943392608863E+06    -0.836901073763479E+04     0.104892810850599E+06     0.000000000000000E+00    -0.450430987842660E+05    -0.119891160704249E+06
    -0.115920000000000E+02     0.594871794871795E+00    -0.489806835794815E+05    -0.142933439480351E+06    -0.106921668617530E+05     0.127165503223481E+06     0.000000000000000E+00    -0.477792396868559E+05    -0.144134883372976E+06
    -0.772800000000000E+01     0.594871794871795E+00    -0.515338487740957E+05    -0.163381090175732E+06    -0.997177180462792E+04     0.145697530869915E+06     0.000000000000000E+00    -0.506517691868922E+05    -0.164263169762936E+06
    -0.386400000000000E+01     0.594871794871795E+00    -0.532327806259071E+05    -0.176974441764978E+06    -0.598720105942257E+04     0.157608312172620E+06     0.000000000000000E+00    -0.529437668271519E+05    -0.177263455563733E+06
     0.000000000000000E+00     0.594871794871795E+00    -0.538269300323569E+05    -0.181726352490067E+06    -0.193385785259271E-08     0.161678798627198E+06     0.000000000000000E+00    -0.538269300323569E+05    -0.181726352490067E+06
    -0.202400000000000E+02     0.446153846153845E+00    -0.427756260639614E+05    -0.949004878882481E+05    -0.526038264608580E+04     0.828217597020608E+05     0.000000000000000E+00    -0.422500534663734E+05    -0.954260604858361E+05
    -0.161920000000000E+02     0.446153846153845E+00    -0.453978694442490E+05    -0.117960694105881E+06    -0.785585135708399E+04     0.103950329076345E+06     0.000000000000000E+00    -0.445571147954383E+05    -0.118801448754692E+06
    -0.121440000000000E+02     0.446153846153845E+00    -0.488913362163834E+05    -0.143182678244826E+06    -0.106380651890279E+05     0.127399980128934E+06     0.000000000000000E+00    -0.477060365560239E+05    -0.144367977905185E+06
    -0.809600000000000E+01     0.446153846153845E+00    -0.521655682731066E+05    -0.165101739161166E+06    -0.102872854269864E+05     0.147257222116425E+06     0.000000000000000E+00    -0.512361545105461E+05    -0.166031152923726E+06
    -0.404800000000000E+01     0.446153846153845E+00    -0.544416669663689E+05    -0.179814518894954E+06    -0.628924687148123E+04     0.160082535064683E+06     0.000000000000000E+00    -0.541269609853768E+05    -0.180129224875947E+06
     0.000000000000000E+00     0.446153846153845E+00    -0.552522931073340E+05    -0.184979002670219E+06    -0.224346456381493E-08     0.164467423060770E+06     0.000000000000000E+00    -0.552522931073340E+05    -0.184979002670219E+06
    -0.211600000000000E+02     0.297435897435897E+00    -0.426612437717615E+05    -0.941094768572739E+05    -0.536933688374475E+04     0.821476558203321E+05     0.000000000000000E+00    -0.421068529277492E+05    -0.946638677012862E+05
    -0.169280000000000E+02     0.297435897435897E+00    -0.447234054420879E+05    -0.117047876258526E+06    -0.733372867857697E+04     0.103087144852868E+06     0.000000000000000E+00    -0.439872554377928E+05    -0.117784026262821E+06
    -0.126960000000000E+02     0.297435897435897E+00    -0.486794454760224E+05    -0.143401462388737E+06    -0.105427722789794E+05     0.127618236547627E+06     0.000000000000000E+00    -0.475201986843952E+05    -0.144560709180364E+06
    -0.846400000000000E+01     0.297435897435897E+00    -0.527652614891478E+05    -0.166785778634319E+06    -0.105976073336129E+05     0.148788781149506E+06     0.000000000000000E+00    -0.517886347883329E+05    -0.167762405335133E+06
    -0.423200000000000E+01     0.297435897435897E+00    -0.557207803497276E+05    -0.182640498842703E+06    -0.660311411966383E+04     0.162530887555403E+06     0.000000000000000E+00    -0.553781721544202E+05    -0.182983107038010E+06
     0.000000000000000E+00     0.297435897435897E+00    -0.567899581787119E+05    -0.188229427322341E+06    -0.256598361066681E-08     0.167230007338389E+06     0.000000000000000E+00    -0.567899581787119E+05    -0.188229427322341E+06
    -0.220800000000000E+02     0.148717948717949E+00    -0.429251968749882E+05    -0.937152371038201E+05    -0.585260797191687E+04     0.818848719210873E+05     0.000000000000000E+00    -0.422595173310194E+05    -0.943809166477889E+05
    -0.176640000000000E+02     0.148717948717949E+00    -0.439919013747508E+05    -0.116225483560969E+06    -0.682052470712171E+04     0.102324137315403E+06     0.000000000000000E+00    -0.433535274411084E+05    -0.116863857494612E+06
    -0.132480000000000E+02     0.148717948717949E+00    -0.483396715734671E+05    -0.143598821150654E+06    -0.104084420992518E+05     0.127831265470263E+06     0.000000000000000E+00    -0.472156612479821E+05    -0.144722831476139E+06
    -0.883200000000000E+01     0.148717948717949E+00    -0.533299241136398E+05    -0.168436223780623E+06    -0.109043272215964E+05     0.150295922471972E+06     0.000000000000000E+00    -0.523060357161660E+05    -0.169460112178097E+06
    -0.441600000000000E+01     0.148717948717949E+00    -0.570779565970446E+05    -0.185452672813546E+06    -0.693074665814112E+04     0.164952820894469E+06     0.000000000000000E+00    -0.567048609417401E+05    -0.185825768468850E+06
     0.000000000000000E+00     0.148717948717949E+00    -0.584529475847373E+05    -0.191477157067015E+06    -0.290125604847019E-08     0.169964244869613E+06     0.000000000000000E+00    -0.584529475847373E+05    -0.191477157067015E+06
    -0.230000000000000E+02    -0.444089209850063E-15    -0.437042494922610E+05    -0.937549221888332E+05    -0.679641486714480E+04     0.821043976470611E+05     0.000000000000000E+00    -0.427977769103703E+05    -0.946613947707239E+05
    -0.184000000000000E+02    -0.444089209850063E-15    -0.432327702220099E+05    -0.115512812726114E+06    -0.633538794724292E+04     0.101679667859447E+06     0.000000000000000E+00    -0.426816716146077E+05    -0.116063911333517E+06
    -0.138000000000000E+02    -0.444089209850063E-15    -0.478670363625559E+05    -0.143783508888840E+06    -0.102372132291076E+05     0.128050231371513E+06     0.000000000000000E+00    -0.467865842238904E+05    -0.144863961027505E+06
    -0.920000000000000E+01    -0.444089209850063E-15    -0.538563187341902E+05    -0.170056091368390E+06    -0.112090656988173E+05     0.151782448528107E+06     0.000000000000000E+00    -0.527849287096365E+05    -0.171127481392944E+06
    -0.460000000000000E+01    -0.444089209850063E-15    -0.585215250656779E+05    -0.188251332087169E+06    -0.727421631114693E+04     0.167347902729744E+06     0.000000000000000E+00    -0.581149192450185E+05    -0.188657937907828E+06
     0.000000000000000E+00    -0.444089209850063E-15    -0.602551999942667E+05    -0.194721694198608E+06    -0.324910976639637E-08     0.172667983977244E+06     0.000000000000000E+00    -0.602551999942667E+05    -0.194721694198608E+06
 zone I=    6 ,j=    6 ,f=point, T="    1"
     0.000000000000000E+00     0.371794871794872E+01    -0.349560267393033E+05    -0.113515263838489E+06     0.146699632062383E-08     0.100695562621514E+06     0.000000000000000E+00    -0.349560267393033E+05    -0.113515263838489E+06
     0.208000000000000E+01     0.392307692307692E+01    -0.343080147191392E+05    -0.107385968239577E+06     0.383950404513655E+04     0.952303105301329E+05     0.000000000000000E+00    -0.341068415885855E+05    -0.107587141370131E+06
     0.416000000000000E+01     0.412820512820513E+01    -0.345133685773556E+05    -0.978839546068981E+05     0.737883370690794E+04     0.869337548798352E+05     0.000000000000000E+00    -0.336655249418419E+05    -0.987317982424118E+05
     0.624000000000000E+01     0.433333333333333E+01    -0.354931011552933E+05    -0.851279566270936E+05     0.101373818690074E+05     0.761142140923073E+05     0.000000000000000E+00    -0.335024847517060E+05    -0.871185730306809E+05
     0.832000000000000E+01     0.453846153846154E+01    -0.369428247281596E+05    -0.694206328232679E+05     0.116239733251837E+05     0.634409375495377E+05     0.000000000000000E+00    -0.332112815966881E+05    -0.731521759547394E+05
     0.104000000000000E+02     0.474358974358974E+01    -0.382871195232685E+05    -0.512640588459151E+05     0.113602694664303E+05     0.501828782506025E+05     0.000000000000000E+00    -0.316929303991682E+05    -0.578582479700154E+05
     0.000000000000000E+00     0.312307692307692E+01    -0.380035948765093E+05    -0.126438403747646E+06     0.127262304200686E-08     0.112364715515737E+06     0.000000000000000E+00    -0.380035948765093E+05    -0.126438403747646E+06
     0.240000000000000E+01     0.328717948717949E+01    -0.375834135463810E+05    -0.120712697768022E+06     0.415322907225795E+04     0.107233488570022E+06     0.000000000000000E+00    -0.373764290964936E+05    -0.120919682217909E+06
     0.480000000000000E+01     0.345128205128205E+01    -0.380040701752924E+05    -0.110732792594112E+06     0.778932659888183E+04     0.983858969147439E+05     0.000000000000000E+00    -0.371791805851435E+05    -0.111557682184261E+06
     0.720000000000000E+01     0.361538461538461E+01    -0.390477609967464E+05    -0.967954474303969E+05     0.102886107859030E+05     0.862090907096571E+05     0.000000000000000E+00    -0.372694536525816E+05    -0.985737547745617E+05
     0.960000000000000E+01     0.377948717948718E+01    -0.401494414319687E+05    -0.795063899282522E+05     0.110915579589082E+05     0.714854846433750E+05     0.000000000000000E+00    -0.372388695140901E+05    -0.824169618461308E+05
     0.120000000000000E+02     0.394358974358974E+01    -0.403267024649337E+05    -0.598030364738419E+05     0.975719765773213E+04     0.554670673751814E+05     0.000000000000000E+00    -0.362795583470848E+05    -0.638501805916908E+05
     0.000000000000000E+00     0.252820512820513E+01    -0.410782091433766E+05    -0.139410520508048E+06     0.870380647672595E-09     0.124080530207343E+06     0.000000000000000E+00    -0.410782091433766E+05    -0.139410520508048E+06
     0.272000000000000E+01     0.265128205128205E+01    -0.408217545237031E+05    -0.134061393154873E+06     0.446351878809282E+04     0.119272882477367E+06     0.000000000000000E+00    -0.406085667503828E+05    -0.134274580928193E+06
     0.544000000000000E+01     0.277435897435897E+01    -0.413177724777786E+05    -0.123527572415012E+06     0.816728013080304E+04     0.109829179782519E+06     0.000000000000000E+00    -0.405142333658832E+05    -0.124331111526908E+06
     0.816000000000000E+01     0.289743589743590E+01    -0.422482798749739E+05    -0.108351044634054E+06     0.103627556816732E+05     0.962776240005625E+05     0.000000000000000E+00    -0.406618132664976E+05    -0.109937511242530E+06
     0.108800000000000E+02     0.302051282051282E+01    -0.428549187965463E+05    -0.895442359798839E+05     0.104951102289844E+05     0.796727388560140E+05     0.000000000000000E+00    -0.406042570448377E+05    -0.917948977315925E+05
     0.136000000000000E+02     0.314358974358974E+01    -0.418486467846848E+05    -0.686186122141221E+05     0.832293347913209E+04     0.616120181424980E+05     0.000000000000000E+00    -0.394719993815706E+05    -0.709952596172363E+05
     0.000000000000000E+00     0.193333333333333E+01    -0.443194966774510E+05    -0.152417677014897E+06     0.252406867892333E-09     0.135795034232897E+06     0.000000000000000E+00    -0.443194966774510E+05    -0.152417677014897E+06
     0.304000000000000E+01     0.201538461538461E+01    -0.441309122594540E+05    -0.147420529835689E+06     0.479654922854135E+04     0.131314767714722E+06     0.000000000000000E+00    -0.439086490339805E+05    -0.147642793061163E+06
     0.608000000000000E+01     0.209743589743590E+01    -0.444699265698409E+05    -0.136270416968729E+06     0.855758709213673E+04     0.121272265437056E+06     0.000000000000000E+00    -0.436790076564832E+05    -0.137061335882086E+06
     0.912000000000000E+01     0.217948717948718E+01    -0.450046311211543E+05    -0.119822473660154E+06     0.104128082290061E+05     0.106374599951925E+06     0.000000000000000E+00    -0.435824570447630E+05    -0.121244647736545E+06
     0.121600000000000E+02     0.226153846153846E+01    -0.449503797743595E+05    -0.995966503596138E+05     0.990087941573312E+04     0.880749929685506E+05     0.000000000000000E+00    -0.432118369422793E+05    -0.101335193191694E+06
     0.152000000000000E+02     0.234358974358974E+01    -0.429739820243470E+05    -0.778077178685461E+05     0.718760908094865E+04     0.686446049941538E+05     0.000000000000000E+00    -0.415491670991955E+05    -0.792325327936976E+05
     0.000000000000000E+00     0.133846153846154E+01    -0.479893195646742E+05    -0.165444350008016E+06    -0.584095150817907E-09     0.147428782668619E+06     0.000000000000000E+00    -0.479893195646742E+05    -0.165444350008016E+06
     0.336000000000000E+01     0.137948717948718E+01    -0.477501664239799E+05    -0.160778054503173E+06     0.518943171759824E+04     0.143294357698228E+06     0.000000000000000E+00    -0.475124050049537E+05    -0.161015815922199E+06
     0.672000000000000E+01     0.142051282051282E+01    -0.475736912639816E+05    -0.148965826505273E+06     0.902199679025832E+04     0.132707982450508E+06     0.000000000000000E+00    -0.467771604040640E+05    -0.149762357365191E+06
     0.100800000000000E+02     0.146153846153846E+01    -0.472492830233452E+05    -0.131241022320205E+06     0.104990350787659E+05     0.116560480827541E+06     0.000000000000000E+00    -0.459567846601132E+05    -0.132533520683436E+06
     0.134400000000000E+02     0.150256410256410E+01    -0.462515022894323E+05    -0.109720770910237E+06     0.934709673836922E+04     0.967739799663233E+05     0.000000000000000E+00    -0.449035848202122E+05    -0.111068688379458E+06
     0.168000000000000E+02     0.154358974358974E+01    -0.436679806627620E+05    -0.874284462577702E+05     0.638462881631248E+04     0.765185762087730E+05     0.000000000000000E+00    -0.427554937367434E+05    -0.883409331837888E+05
     0.000000000000000E+00     0.743589743589743E+00    -0.525017336894546E+05    -0.178471919310442E+06    -0.163730881415231E-08     0.158866525247041E+06     0.000000000000000E+00    -0.525017336894546E+05    -0.178471919310442E+06
     0.368000000000000E+01     0.743589743589743E+00    -0.520867700154473E+05    -0.174119975452734E+06     0.569515529900155E+04     0.155108847998559E+06     0.000000000000000E+00    -0.518215597615251E+05    -0.174385185706656E+06
     0.736000000000000E+01     0.743589743589743E+00    -0.508728975864968E+05    -0.161620818972771E+06     0.964951408332195E+04     0.144106074920388E+06     0.000000000000000E+00    -0.500384190121243E+05    -0.162455297547143E+06
     0.110400000000000E+02     0.743589743589743E+00    -0.489531721818678E+05    -0.142644475150069E+06     0.107029392806186E+05     0.126903973666811E+06     0.000000000000000E+00    -0.477460612873661E+05    -0.143851586044571E+06
     0.147200000000000E+02     0.743589743589743E+00    -0.464826867670089E+05    -0.119974319450495E+06     0.885661270323239E+04     0.105891772821651E+06     0.000000000000000E+00    -0.454304263429142E+05    -0.121026579874590E+06
     0.184000000000000E+02     0.743589743589743E+00    -0.436785714935555E+05    -0.975070775262699E+05     0.585369449052697E+04     0.852013798957392E+05     0.000000000000000E+00    -0.430493542380512E+05    -0.981362947817742E+05
 zone I=    6 ,j=    6 ,f=point, T="    1"
     0.000000000000000E+00     0.743589743589743E+00    -0.525017336894546E+05    -0.178471919310442E+06    -0.163730881415231E-08     0.158866525247041E+06     0.000000000000000E+00    -0.525017336894546E+05    -0.178471919310442E+06
     0.368000000000000E+01     0.743589743589743E+00    -0.520867700154473E+05    -0.174119975452734E+06     0.569515529900155E+04     0.155108847998559E+06     0.000000000000000E+00    -0.518215597615251E+05    -0.174385185706656E+06
     0.736000000000000E+01     0.743589743589743E+00    -0.508728975864968E+05    -0.161620818972771E+06     0.964951408332195E+04     0.144106074920388E+06     0.000000000000000E+00    -0.500384190121243E+05    -0.162455297547143E+06
     0.110400000000000E+02     0.743589743589743E+00    -0.489531721818678E+05    -0.142644475150069E+06     0.107029392806186E+05     0.126903973666811E+06     0.000000000000000E+00    -0.477460612873661E+05    -0.143851586044571E+06
     0.147200000000000E+02     0.743589743589743E+00    -0.464826867670089E+05    -0.119974319450495E+06     0.885661270323239E+04     0.105891772821651E+06     0.000000000000000E+00    -0.454304263429142E+05    -0.121026579874590E+06
     0.184000000000000E+02     0.743589743589743E+00    -0.436785714935555E+05    -0.975070775262699E+05     0.585369449052697E+04     0.852013798957392E+05     0.000000000000000E+00    -0.430493542380512E+05    -0.981362947817742E+05
     0.000000000000000E+00     0.594871794871795E+00    -0.538269300323569E+05    -0.181726352490067E+06    -0.193385785259271E-08     0.161678798627198E+06     0.000000000000000E+00    -0.538269300323569E+05    -0.181726352490067E+06
     0.386400000000000E+01     0.594871794871795E+00    -0.532327806259206E+05    -0.176974441764987E+06     0.598720105941819E+04     0.157608312172625E+06     0.000000000000000E+00    -0.529437668271658E+05    -0.177263455563742E+06
     0.772800000000000E+01     0.594871794871795E+00    -0.515338487741110E+05    -0.163381090175741E+06     0.997177180462225E+04     0.145697530869918E+06     0.000000000000000E+00    -0.506517691869084E+05    -0.164263169762943E+06
     0.115920000000000E+02     0.594871794871795E+00    -0.489806835794824E+05    -0.142933439480347E+06     0.106921668617461E+05     0.127165503223475E+06     0.000000000000000E+00    -0.477792396868583E+05    -0.144134883372971E+06
     0.154560000000000E+02     0.594871794871795E+00    -0.459908668796344E+05    -0.118943392608842E+06     0.836901073762778E+04     0.104892810850581E+06     0.000000000000000E+00    -0.450430987842493E+05    -0.119891160704227E+06
     0.193200000000000E+02     0.594871794871795E+00    -0.431490132472153E+05    -0.960476136632896E+05     0.544618276015911E+04     0.838546623645421E+05     0.000000000000000E+00    -0.425941214074994E+05    -0.966025055030055E+05
     0.000000000000000E+00     0.446153846153845E+00    -0.552522931073340E+05    -0.184979002670219E+06    -0.224346456381493E-08     0.164467423060770E+06     0.000000000000000E+00    -0.552522931073340E+05    -0.184979002670219E+06
     0.404800000000000E+01     0.446153846153845E+00    -0.544416669663835E+05    -0.179814518894964E+06     0.628924687147646E+04     0.160082535064688E+06     0.000000000000000E+00    -0.541269609853919E+05    -0.180129224875955E+06
     0.809600000000000E+01     0.446153846153845E+00    -0.521655682731221E+05    -0.165101739161174E+06     0.102872854269809E+05     0.147257222116428E+06     0.000000000000000E+00    -0.512361545105625E+05    -0.166031152923733E+06
     0.121440000000000E+02     0.446153846153845E+00    -0.488913362163821E+05    -0.143182678244819E+06     0.106380651890216E+05     0.127399980128926E+06     0.000000000000000E+00    -0.477060365560239E+05    -0.144367977905177E+06
     0.161920000000000E+02     0.446153846153845E+00    -0.453978694442283E+05    -0.117960694105860E+06     0.785585135707753E+04     0.103950329076326E+06     0.000000000000000E+00    -0.445571147954190E+05    -0.118801448754669E+06
     0.202400000000000E+02     0.446153846153845E+00    -0.427756260639630E+05    -0.949004878882478E+05     0.526038264608069E+04     0.828217597020595E+05     0.000000000000000E+00    -0.422500534663760E+05    -0.954260604858348E+05
     0.000000000000000E+00     0.297435897435897E+00    -0.567899581787119E+05    -0.188229427322341E+06    -0.256598361066681E-08     0.167230007338389E+06     0.000000000000000E+00    -0.567899581787119E+05    -0.188229427322341E+06
     0.423200000000000E+01     0.297435897435897E+00    -0.557207803497433E+05    -0.182640498842712E+06     0.660311411965870E+04     0.162530887555408E+06     0.000000000000000E+00    -0.553781721544364E+05    -0.182983107038019E+06
     0.846400000000000E+01     0.297435897435897E+00    -0.527652614891635E+05    -0.166785778634326E+06     0.105976073336077E+05     0.148788781149508E+06     0.000000000000000E+00    -0.517886347883494E+05    -0.167762405335140E+06
     0.126960000000000E+02     0.297435897435897E+00    -0.486794454760186E+05    -0.143401462388727E+06     0.105427722789739E+05     0.127618236547618E+06     0.000000000000000E+00    -0.475201986843925E+05    -0.144560709180353E+06
     0.169280000000000E+02     0.297435897435897E+00    -0.447234054420655E+05    -0.117047876258504E+06     0.733372867857069E+04     0.103087144852849E+06     0.000000000000000E+00    -0.439872554377717E+05    -0.117784026262798E+06
     0.211600000000000E+02     0.297435897435897E+00    -0.426612437717782E+05    -0.941094768572901E+05     0.536933688373674E+04     0.821476558203440E+05     0.000000000000000E+00    -0.421068529277675E+05    -0.946638677013007E+05
     0.000000000000000E+00     0.148717948717949E+00    -0.584529475847373E+05    -0.191477157067015E+06    -0.290125604847019E-08     0.169964244869613E+06     0.000000000000000E+00    -0.584529475847373E+05    -0.191477157067015E+06
     0.441600000000000E+01     0.148717948717949E+00    -0.570779565970614E+05    -0.185452672813556E+06     0.693074665813565E+04     0.164952820894474E+06     0.000000000000000E+00    -0.567048609417574E+05    -0.185825768468859E+06
     0.883200000000000E+01     0.148717948717949E+00    -0.533299241136554E+05    -0.168436223780629E+06     0.109043272215916E+05     0.150295922471974E+06     0.000000000000000E+00    -0.523060357161824E+05    -0.169460112178102E+06
     0.132480000000000E+02     0.148717948717949E+00    -0.483396715734606E+05    -0.143598821150642E+06     0.104084420992472E+05     0.127831265470252E+06     0.000000000000000E+00    -0.472156612479765E+05    -0.144722831476126E+06
     0.176640000000000E+02     0.148717948717949E+00    -0.439919013747280E+05    -0.116225483560948E+06     0.682052470711496E+04     0.102324137315386E+06     0.000000000000000E+00    -0.433535274410867E+05    -0.116863857494590E+06
     0.220800000000000E+02     0.148717948717949E+00    -0.429251968750261E+05    -0.937152371038591E+05     0.585260797190363E+04     0.818848719211171E+05     0.000000000000000E+00    -0.422595173310603E+05    -0.943809166478249E+05
     0.000000000000000E+00    -0.444089209850063E-15    -0.602551999942667E+05    -0.194721694198608E+06    -0.324910976639637E-08     0.172667983977244E+06     0.000000000000000E+00    -0.602551999942667E+05    -0.194721694198608E+06
     0.460000000000000E+01    -0.444089209850063E-15    -0.585215250656958E+05    -0.188251332087179E+06     0.727421631114118E+04     0.167347902729749E+06     0.000000000000000E+00    -0.581149192450370E+05    -0.188657937907837E+06
     0.920000000000000E+01    -0.444089209850063E-15    -0.538563187342057E+05    -0.170056091368395E+06     0.112090656988130E+05     0.151782448528108E+06     0.000000000000000E+00    -0.527849287096527E+05    -0.171127481392948E+06
     0.138000000000000E+02    -0.444089209850063E-15    -0.478670363625466E+05    -0.143783508888826E+06     0.102372132291038E+05     0.128050231371500E+06     0.000000000000000E+00    -0.467865842238819E+05    -0.144863961027490E+06
     0.184000000000000E+02    -0.444089209850063E-15    -0.432327702219880E+05    -0.115512812726097E+06     0.633538794723488E+04     0.101679667859433E+06     0.000000000000000E+00    -0.426816716145871E+05    -0.116063911333497E+06
     0.230000000000000E+02    -0.444089209850063E-15    -0.437042494923277E+05    -0.937549221889030E+05     0.679641486712327E+04     0.821043976471143E+05     0.000000000000000E+00    -0.427977769104428E+05    -0.946613947707880E+05
 zone I=    6 ,j=    6 ,f=point, T="    1"
     0.184000000000000E+02     0.743589743589743E+00    -0.436785714935555E+05    -0.975070775262699E+05     0.585369449052697E+04     0.852013798957392E+05     0.000000000000000E+00    -0.430493542380512E+05    -0.981362947817742E+05
     0.168000000000000E+02     0.154358974358974E+01    -0.436679806627620E+05    -0.874284462577702E+05     0.638462881631249E+04     0.765185762087730E+05     0.000000000000000E+00    -0.427554937367434E+05    -0.883409331837888E+05
     0.152000000000000E+02     0.234358974358974E+01    -0.429739820243470E+05    -0.778077178685461E+05     0.718760908094864E+04     0.686446049941538E+05     0.000000000000000E+00    -0.415491670991955E+05    -0.792325327936976E+05
     0.136000000000000E+02     0.314358974358974E+01    -0.418486467846848E+05    -0.686186122141221E+05     0.832293347913209E+04     0.616120181424980E+05     0.000000000000000E+00    -0.394719993815706E+05    -0.709952596172363E+05
     0.120000000000000E+02     0.394358974358974E+01    -0.403267024649337E+05    -0.598030364738419E+05     0.975719765773213E+04     0.554670673751814E+05     0.000000000000000E+00    -0.362795583470848E+05    -0.638501805916908E+05
     0.104000000000000E+02     0.474358974358974E+01    -0.382871195232685E+05    -0.512640588459151E+05     0.113602694664303E+05     0.501828782506025E+05     0.000000000000000E+00    -0.316929303991682E+05    -0.578582479700154E+05
     0.193200000000000E+02     0.594871794871795E+00    -0.431490132472153E+05    -0.960476136632896E+05     0.544618276015911E+04     0.838546623645421E+05     0.000000000000000E+00    -0.425941214074994E+05    -0.966025055030055E+05
     0.176400000000000E+02     0.143487179487179E+01    -0.430077277397383E+05    -0.850803165329915E+05     0.574112399197812E+04     0.743511622727018E+05     0.000000000000000E+00    -0.422383763850277E+05    -0.858496678877021E+05
     0.159600000000000E+02     0.227487179487179E+01    -0.422990881528334E+05    -0.746503759751842E+05     0.638417442649471E+04     0.657763004972519E+05     0.000000000000000E+00    -0.410848171979419E+05    -0.758646469300757E+05
     0.142800000000000E+02     0.311487179487179E+01    -0.413360528372168E+05    -0.647621568206341E+05     0.749410773833551E+04     0.582604431532500E+05     0.000000000000000E+00    -0.391438095154756E+05    -0.669544001423753E+05
     0.126000000000000E+02     0.395487179487179E+01    -0.401380918092863E+05    -0.553804086608325E+05     0.906611047567019E+04     0.519786035570251E+05     0.000000000000000E+00    -0.359154157669579E+05    -0.596030847031609E+05
     0.109200000000000E+02     0.479487179487179E+01    -0.385097886215731E+05    -0.464212983045321E+05     0.109679209902307E+05     0.470228906305632E+05     0.000000000000000E+00    -0.308060714675533E+05    -0.541250154585519E+05
     0.202400000000000E+02     0.446153846153845E+00    -0.427756260639630E+05    -0.949004878882478E+05     0.526038264608069E+04     0.828217597020595E+05     0.000000000000000E+00    -0.422500534663760E+05    -0.954260604858348E+05
     0.184800000000000E+02     0.132615384615385E+01    -0.423040871983110E+05    -0.829638480174186E+05     0.520920940272853E+04     0.724177712892890E+05     0.000000000000000E+00    -0.416473075575321E+05    -0.836206276581976E+05
     0.167200000000000E+02     0.220615384615385E+01    -0.414533356827852E+05    -0.716319937830183E+05     0.558371658128904E+04     0.630370538748908E+05     0.000000000000000E+00    -0.404533595259373E+05    -0.726319699398662E+05
     0.149600000000000E+02     0.308615384615385E+01    -0.406107353970079E+05    -0.609522253512648E+05     0.658171196358304E+04     0.549458615936893E+05     0.000000000000000E+00    -0.386669029666757E+05    -0.628960577815970E+05
     0.132000000000000E+02     0.396615384615385E+01    -0.397748387401974E+05    -0.509229852350774E+05     0.824046722355728E+04     0.485123757030464E+05     0.000000000000000E+00    -0.354002642086502E+05    -0.552975597666247E+05
     0.114400000000000E+02     0.484615384615385E+01    -0.386545725021394E+05    -0.414825423596868E+05     0.104318457329371E+05     0.440222395036665E+05     0.000000000000000E+00    -0.295413185348589E+05    -0.505957963269673E+05
     0.211600000000000E+02     0.297435897435897E+00    -0.426612437717782E+05    -0.941094768572901E+05     0.536933688373674E+04     0.821476558203440E+05     0.000000000000000E+00    -0.421068529277675E+05    -0.946638677013007E+05
     0.193200000000000E+02     0.121743589743590E+01    -0.416029013511899E+05    -0.811260520946905E+05     0.484561607486414E+04     0.707643877415421E+05     0.000000000000000E+00    -0.410174903043486E+05    -0.817114631415317E+05
     0.174800000000000E+02     0.213743589743590E+01    -0.404410529861982E+05    -0.687959079554009E+05     0.482322537843401E+04     0.604645951639140E+05     0.000000000000000E+00    -0.396430688526737E+05    -0.695938920889255E+05
     0.156400000000000E+02     0.305743589743590E+01    -0.396534546146733E+05    -0.572240156663403E+05     0.560381885252888E+04     0.516920001640564E+05     0.000000000000000E+00    -0.380183733593810E+05    -0.588590969216326E+05
     0.138000000000000E+02     0.397743589743590E+01    -0.392112216460768E+05    -0.464556190911396E+05     0.728333032606285E+04     0.450910586829148E+05     0.000000000000000E+00    -0.346990965353658E+05    -0.509677442018506E+05
     0.119600000000000E+02     0.489743589743590E+01    -0.387027016567423E+05    -0.364621023211745E+05     0.974588854173670E+04     0.412449898011921E+05     0.000000000000000E+00    -0.277723349752428E+05    -0.473924690026740E+05
     0.220800000000000E+02     0.148717948717949E+00    -0.429251968750261E+05    -0.937152371038591E+05     0.585260797190363E+04     0.818848719211171E+05     0.000000000000000E+00    -0.422595173310603E+05    -0.943809166478249E+05
     0.201600000000000E+02     0.110871794871795E+01    -0.409592759774090E+05    -0.796132657270106E+05     0.471297530208853E+04     0.694382391376107E+05     0.000000000000000E+00    -0.403929335985293E+05    -0.801796081058903E+05
     0.182400000000000E+02     0.206871794871795E+01    -0.392702845846777E+05    -0.661861490721408E+05     0.414420708098133E+04     0.580959209215631E+05     0.000000000000000E+00    -0.386466546776063E+05    -0.668097789792121E+05
     0.163200000000000E+02     0.302871794871795E+01    -0.384451299388900E+05    -0.536139782917315E+05     0.458138043165063E+04     0.485206910739787E+05     0.000000000000000E+00    -0.371688240806360E+05    -0.548902841499854E+05
     0.144000000000000E+02     0.398871794871795E+01    -0.384200583137179E+05    -0.420044174372175E+05     0.619914056037870E+04     0.417366485089526E+05     0.000000000000000E+00    -0.337592346003340E+05    -0.466652411506014E+05
     0.124800000000000E+02     0.494871794871795E+01    -0.386339022382808E+05    -0.313752197638479E+05     0.890417296817303E+04     0.387645267360140E+05     0.000000000000000E+00    -0.253891351621686E+05    -0.446199868399601E+05
     0.230000000000000E+02    -0.444089209850063E-15    -0.437042494923277E+05    -0.937549221889030E+05     0.679641486712327E+04     0.821043976471143E+05     0.000000000000000E+00    -0.427977769104428E+05    -0.946613947707880E+05
     0.210000000000000E+02     0.100000000000000E+01    -0.404381505379598E+05    -0.784709433593970E+05     0.487999674079402E+04     0.684920159930474E+05     0.000000000000000E+00    -0.398219796015445E+05    -0.790871142958124E+05
     0.190000000000000E+02     0.200000000000000E+01    -0.379530705664097E+05    -0.638473481558955E+05     0.359284695666235E+04     0.559682246429362E+05     0.000000000000000E+00    -0.374638053695954E+05    -0.643366133527098E+05
     0.170000000000000E+02     0.300000000000000E+01    -0.369669227560986E+05    -0.501597903066962E+05     0.353834602734636E+04     0.454517824267109E+05     0.000000000000000E+00    -0.360778484550447E+05    -0.510488646077501E+05
     0.150000000000000E+02     0.400000000000000E+01    -0.373726858275202E+05    -0.375967480707858E+05     0.499378319926861E+04     0.384701867632412E+05     0.000000000000000E+00    -0.324896772482586E+05    -0.424797566500475E+05
     0.130000000000000E+02     0.500000000000000E+01    -0.384263514987838E+05    -0.262380816568074E+05     0.790112412428579E+04     0.366615733080458E+05     0.000000000000000E+00    -0.223539280039680E+05    -0.423105051516232E+05
 zone I=    6 ,j=    6 ,f=point, T="    1"
     0.000000000000000E+00     0.371794871794872E+01    -0.349560267393033E+05    -0.113515263838489E+06     0.146699632062383E-08     0.100695562621514E+06     0.000000000000000E+00    -0.349560267393033E+05    -0.113515263838489E+06
     0.000000000000000E+00     0.472307692307692E+01    -0.297667369431778E+05    -0.918302887180135E+05     0.136333455812147E-08     0.811503081115092E+05     0.000000000000000E+00    -0.297667369431778E+05    -0.918302887180135E+05
     0.000000000000000E+00     0.572820512820513E+01    -0.246558149283538E+05    -0.704049050488436E+05     0.811329701894017E-09     0.618778599806531E+05     0.000000000000000E+00    -0.246558149283538E+05    -0.704049050488436E+05
     0.000000000000000E+00     0.673333333333333E+01    -0.198274356240264E+05    -0.493511759251406E+05    -0.298624501889726E-10     0.430134688788682E+05     0.000000000000000E+00    -0.198274356240264E+05    -0.493511759251406E+05
     0.000000000000000E+00     0.773846153846154E+01    -0.151685261177411E+05    -0.288344754005473E+05    -0.939983152699316E-09     0.249826872654804E+05     0.000000000000000E+00    -0.151685261177411E+05    -0.288344754005473E+05
     0.000000000000000E+00     0.874358974358974E+01    -0.983617864559884E+04    -0.909429437797054E+04    -0.163144629773084E-08     0.948701725643723E+04     0.000000000000000E+00    -0.909429437797054E+04    -0.983617864559884E+04
     0.208000000000000E+01     0.392307692307692E+01    -0.343080147191392E+05    -0.107385968239577E+06     0.383950404513655E+04     0.952303105301329E+05     0.000000000000000E+00    -0.341068415885855E+05    -0.107587141370131E+06
     0.176000000000000E+01     0.488717948717949E+01    -0.293332618276249E+05    -0.870207577686962E+05     0.364593972759573E+04     0.769436708866323E+05     0.000000000000000E+00    -0.291037459035608E+05    -0.872502736927604E+05
     0.144000000000000E+01     0.585128205128205E+01    -0.244386080946719E+05    -0.668731276709415E+05     0.343776132983584E+04     0.589103490039454E+05     0.000000000000000E+00    -0.241619078968451E+05    -0.671498278687683E+05
     0.112000000000000E+01     0.681538461538462E+01    -0.197849454769802E+05    -0.470419695155642E+05     0.317364055070105E+04     0.412781315525583E+05     0.000000000000000E+00    -0.194203043775130E+05    -0.474066106150314E+05
     0.800000000000000E+00     0.777948717948718E+01    -0.152199779706617E+05    -0.276701067189926E+05     0.277418676524992E+04     0.244792250119240E+05     0.000000000000000E+00    -0.146297992331699E+05    -0.282602854564844E+05
     0.480000000000000E+00     0.874358974358974E+01    -0.996170771829332E+04    -0.895869441882774E+04     0.209475148552964E+04     0.101692616435589E+05     0.000000000000000E+00    -0.730625290162270E+04    -0.116141492354984E+05
     0.416000000000000E+01     0.412820512820513E+01    -0.345133685773556E+05    -0.978839546068981E+05     0.737883370690794E+04     0.869337548798352E+05     0.000000000000000E+00    -0.336655249418419E+05    -0.987317982424118E+05
     0.352000000000000E+01     0.505128205128205E+01    -0.297713996217809E+05    -0.796208752545852E+05     0.711413468831820E+04     0.707617683032043E+05     0.000000000000000E+00    -0.287760011040524E+05    -0.806162737723137E+05
     0.288000000000000E+01     0.597435897435897E+01    -0.250510359011335E+05    -0.614705116523899E+05     0.679230644452237E+04     0.548150024060049E+05     0.000000000000000E+00    -0.238254970785670E+05    -0.626960504749564E+05
     0.224000000000000E+01     0.689743589743590E+01    -0.204497136845301E+05    -0.435042892757612E+05     0.632433268645064E+04     0.392575504485035E+05     0.000000000000000E+00    -0.188287868541269E+05    -0.451252161061644E+05
     0.160000000000000E+01     0.782051282051282E+01    -0.157748905376528E+05    -0.258210164869018E+05     0.554579601449590E+04     0.245054262469187E+05     0.000000000000000E+00    -0.133155063803931E+05    -0.282804006441615E+05
     0.960000000000000E+00     0.874358974358974E+01    -0.103377170574131E+05    -0.855223835792247E+04     0.417584160501714E+04     0.119963125112957E+05     0.000000000000000E+00    -0.517477435691553E+04    -0.137151810584201E+05
     0.624000000000000E+01     0.433333333333333E+01    -0.354931011552933E+05    -0.851279566270936E+05     0.101373818690074E+05     0.761142140923073E+05     0.000000000000000E+00    -0.335024847517060E+05    -0.871185730306809E+05
     0.528000000000000E+01     0.521538461538461E+01    -0.310651447653111E+05    -0.696786857256151E+05     0.100565039708792E+05     0.629204562997190E+05     0.000000000000000E+00    -0.286030232550659E+05    -0.721408072358602E+05
     0.432000000000000E+01     0.609743589743590E+01    -0.265138503333302E+05    -0.542090770581870E+05     0.983809779783897E+04     0.499467861229277E+05     0.000000000000000E+00    -0.233748641503773E+05    -0.573480632411399E+05
     0.336000000000000E+01     0.697948717948718E+01    -0.218466484364810E+05    -0.387378091765744E+05     0.932712359170691E+04     0.373173996000888E+05     0.000000000000000E+00    -0.177095795512280E+05    -0.428748780618274E+05
     0.240000000000000E+01     0.786153846153846E+01    -0.168439776932425E+05    -0.232864359299717E+05     0.826112570004419E+04     0.252681631502442E+05     0.000000000000000E+00    -0.111982730199895E+05    -0.289321406032248E+05
     0.144000000000000E+01     0.874358974358974E+01    -0.109624730260659E+05    -0.787595764482298E+04     0.622963091484177E+04     0.145702249275677E+05     0.000000000000000E+00    -0.300127597496317E+04    -0.158371546959257E+05
     0.832000000000000E+01     0.453846153846154E+01    -0.369428247281596E+05    -0.694206328232679E+05     0.116239733251837E+05     0.634409375495377E+05     0.000000000000000E+00    -0.332112815966881E+05    -0.731521759547394E+05
     0.704000000000000E+01     0.537948717948718E+01    -0.330741505010455E+05    -0.573408178838165E+05     0.121090108153065E+05     0.540856211500252E+05     0.000000000000000E+00    -0.280655493718887E+05    -0.623494190129733E+05
     0.576000000000000E+01     0.622051282051282E+01    -0.287867128725441E+05    -0.451472070126417E+05     0.123386253056946E+05     0.449892262334148E+05     0.000000000000000E+00    -0.221629700560329E+05    -0.517709498291528E+05
     0.448000000000000E+01     0.706153846153846E+01    -0.239754982162219E+05    -0.327601187657985E+05     0.120522827588335E+05     0.360330721189477E+05     0.000000000000000E+00    -0.155401076350935E+05    -0.411955093469269E+05
     0.320000000000000E+01     0.790256410256410E+01    -0.184303245867470E+05    -0.200705675121612E+05     0.108654150949785E+05     0.269586573534789E+05     0.000000000000000E+00    -0.835412353221093E+04    -0.301467685666972E+05
     0.192000000000000E+01     0.874358974358974E+01    -0.118330862294310E+05    -0.693157136214289E+04     0.824252381623374E+04     0.176029635633174E+05     0.000000000000000E+00    -0.783177043448699E+03    -0.179814805481252E+05
     0.104000000000000E+02     0.474358974358974E+01    -0.382871195232685E+05    -0.512640588459151E+05     0.113602694664303E+05     0.501828782506025E+05     0.000000000000000E+00    -0.316929303991682E+05    -0.578582479700154E+05
     0.880000000000000E+01     0.554358974358974E+01    -0.355146979771125E+05    -0.428588822424650E+05     0.129022637083600E+05     0.455572445106310E+05     0.000000000000000E+00    -0.257721462669233E+05    -0.526014339526542E+05
     0.720000000000000E+01     0.634358974358974E+01    -0.317616540253701E+05    -0.343918179845760E+05     0.140505168907463E+05     0.411279693307772E+05     0.000000000000000E+00    -0.189648096478019E+05    -0.471886623621442E+05
     0.560000000000000E+01     0.714358974358974E+01    -0.268092066706588E+05    -0.256072594973419E+05     0.143665619755450E+05     0.361545197469472E+05     0.000000000000000E+00    -0.118291068153762E+05    -0.405873593526245E+05
     0.400000000000000E+01     0.794358974358974E+01    -0.205291643415416E+05    -0.161826560049125E+05     0.133031031300829E+05     0.296989258727776E+05     0.000000000000000E+00    -0.487645964400594E+04    -0.318353607024482E+05
     0.240000000000000E+01     0.874358974358974E+01    -0.129455115147596E+05    -0.572148622554122E+04     0.102009904776972E+05     0.209388329992805E+05     0.148809260573178E+04     0.000000000000000E+00    -0.201550903460326E+05
 zone I=    6 ,j=    6 ,f=point, T="    1"
     0.104000000000000E+02     0.474358974358974E+01    -0.382871195232685E+05    -0.512640588459151E+05     0.113602694664303E+05     0.501828782506025E+05     0.000000000000000E+00    -0.316929303991682E+05    -0.578582479700154E+05
     0.880000000000000E+01     0.554358974358974E+01    -0.355146979771125E+05    -0.428588822424650E+05     0.129022637083600E+05     0.455572445106310E+05     0.000000000000000E+00    -0.257721462669233E+05    -0.526014339526542E+05
     0.720000000000000E+01     0.634358974358974E+01    -0.317616540253701E+05    -0.343918179845760E+05     0.140505168907463E+05     0.411279693307772E+05     0.000000000000000E+00    -0.189648096478019E+05    -0.471886623621442E+05
     0.560000000000000E+01     0.714358974358974E+01    -0.268092066706588E+05    -0.256072594973419E+05     0.143665619755450E+05     0.361545197469472E+05     0.000000000000000E+00    -0.118291068153762E+05    -0.405873593526245E+05
     0.400000000000000E+01     0.794358974358974E+01    -0.205291643415416E+05    -0.161826560049125E+05     0.133031031300829E+05     0.296989258727776E+05     0.000000000000000E+00    -0.487645964400594E+04    -0.318353607024482E+05
     0.240000000000000E+01     0.874358974358974E+01    -0.129455115147596E+05    -0.572148622554122E+04     0.102009904776972E+05     0.209388329992805E+05     0.148809260573178E+04     0.000000000000000E+00    -0.201550903460326E+05
     0.109200000000000E+02     0.479487179487179E+01    -0.385097886215731E+05    -0.464212983045321E+05     0.109679209902307E+05     0.470228906305632E+05     0.000000000000000E+00    -0.308060714675533E+05    -0.541250154585519E+05
     0.924000000000000E+01     0.563487179487179E+01    -0.361194422331938E+05    -0.377434422342842E+05     0.129359683673308E+05     0.432195244104838E+05     0.000000000000000E+00    -0.239700140099101E+05    -0.498928704575679E+05
     0.756000000000000E+01     0.647487179487180E+01    -0.325776688803017E+05    -0.291389390629748E+05     0.145715113558851E+05     0.399761228817594E+05     0.000000000000000E+00    -0.161857050578864E+05    -0.455309028853902E+05
     0.588000000000000E+01     0.731487179487180E+01    -0.275160039465392E+05    -0.203244019903615E+05     0.153367772984291E+05     0.362851991558371E+05     0.000000000000000E+00    -0.816753581092956E+04    -0.396728701259711E+05
     0.420000000000000E+01     0.815487179487180E+01    -0.206655038334885E+05    -0.109319912596105E+05     0.145511010611377E+05     0.309169856322267E+05     0.000000000000000E+00    -0.455349655342283E+03    -0.311421454377568E+05
     0.252000000000000E+01     0.899487179487179E+01    -0.119353478311245E+05    -0.500446613832697E+03     0.113870639638453E+05     0.229287079314631E+05     0.652394201599125E+04     0.000000000000000E+00    -0.189597364609485E+05
     0.114400000000000E+02     0.484615384615385E+01    -0.386545725021394E+05    -0.414825423596868E+05     0.104318457329371E+05     0.440222395036665E+05     0.000000000000000E+00    -0.295413185348589E+05    -0.505957963269673E+05
     0.968000000000000E+01     0.572615384615385E+01    -0.367684237341579E+05    -0.324976761282473E+05     0.128574303668791E+05     0.413408775703861E+05     0.000000000000000E+00    -0.215995033333847E+05    -0.476665965290206E+05
     0.792000000000000E+01     0.660615384615385E+01    -0.335436256200872E+05    -0.237523604874469E+05     0.150436513096236E+05     0.396426978756308E+05     0.000000000000000E+00    -0.128277951109487E+05    -0.444681909965853E+05
     0.616000000000000E+01     0.748615384615385E+01    -0.284153433472425E+05    -0.149364479931185E+05     0.163369138601473E+05     0.375071883977157E+05     0.000000000000000E+00    -0.400346206680457E+04    -0.393483292735564E+05
     0.440000000000000E+01     0.836615384615385E+01    -0.209258599773918E+05    -0.563435387585135E+04     0.158987262378163E+05     0.333172980158606E+05     0.436152099424760E+04     0.000000000000000E+00    -0.309217348474907E+05
     0.264000000000000E+01     0.924615384615385E+01    -0.108237623177268E+05     0.468625989339824E+04     0.127008273880379E+05     0.259570968092842E+05     0.118124857521519E+05     0.000000000000000E+00    -0.179499881764805E+05
     0.119600000000000E+02     0.489743589743590E+01    -0.387027016567423E+05    -0.364621023211745E+05     0.974588854173670E+04     0.412449898011921E+05     0.000000000000000E+00    -0.277723349752428E+05    -0.473924690026740E+05
     0.101200000000000E+02     0.581743589743590E+01    -0.374573470851564E+05    -0.271268572665974E+05     0.126577322989928E+05     0.400433975670732E+05     0.000000000000000E+00    -0.186210399667505E+05    -0.459631643850033E+05
     0.828000000000000E+01     0.673743589743590E+01    -0.346695879272392E+05    -0.182311512473696E+05     0.154611255969704E+05     0.402421161948454E+05     0.000000000000000E+00    -0.894031662208431E+04    -0.439604225525246E+05
     0.644000000000000E+01     0.765743589743590E+01    -0.295227044316254E+05    -0.943999458429421E+04     0.173682727774602E+05     0.398369188389005E+05     0.580696947356926E+03     0.000000000000000E+00    -0.395433959632766E+05
     0.460000000000000E+01     0.857743589743590E+01    -0.213126997949448E+05    -0.288008190047665E+03     0.173552336678596E+05     0.367666737164518E+05     0.949037171991404E+04     0.000000000000000E+00    -0.310910797049065E+05
     0.276000000000000E+01     0.949743589743590E+01    -0.957217285710292E+04     0.983470883978711E+04     0.141558387241281E+05     0.297262650552325E+05     0.172935677871968E+05     0.000000000000000E+00    -0.170310318045126E+05
     0.124800000000000E+02     0.494871794871795E+01    -0.386339022382808E+05    -0.313752197638479E+05     0.890417296817303E+04     0.387645267360140E+05     0.000000000000000E+00    -0.253891351621686E+05    -0.446199868399601E+05
     0.105600000000000E+02     0.590871794871795E+01    -0.381813277209788E+05    -0.216367440355457E+05     0.123276756622779E+05     0.394430935128492E+05     0.000000000000000E+00    -0.150630802146684E+05    -0.447549915418561E+05
     0.864000000000000E+01     0.686871794871795E+01    -0.359660814733252E+05    -0.125744708297698E+05     0.158178313676861E+05     0.418333988384498E+05     0.000000000000000E+00    -0.459807110733652E+04    -0.439424811957585E+05
     0.672000000000000E+01     0.782871794871795E+01    -0.308542381337800E+05    -0.383151884237485E+04     0.184322797386503E+05     0.432168111013568E+05     0.551113157229003E+04     0.000000000000000E+00    -0.401968885484449E+05
     0.480000000000000E+01     0.878871794871795E+01    -0.218274474915829E+05     0.510883880752735E+04     0.189305895701945E+05     0.410992977214799E+05     0.148733903224330E+05     0.000000000000000E+00    -0.315919990064885E+05
     0.288000000000000E+01     0.974871794871795E+01    -0.813618171058596E+04     0.149406582727081E+05     0.157667310096262E+05     0.340110284058239E+05     0.229400207200572E+05     0.000000000000000E+00    -0.161355441579351E+05
     0.130000000000000E+02     0.500000000000000E+01    -0.384263514987838E+05    -0.262380816568074E+05     0.790112412428580E+04     0.366615733080458E+05     0.000000000000000E+00    -0.223539280039680E+05    -0.423105051516232E+05
     0.110000000000000E+02     0.600000000000000E+01    -0.389348719411568E+05    -0.160335906420296E+05     0.118577785313185E+05     0.396302311201878E+05     0.000000000000000E+00    -0.110001758748204E+05    -0.439682867083660E+05
     0.900000000000000E+01     0.700000000000000E+01    -0.374441072346080E+05    -0.678157139131433E+04     0.161073678979808E+05     0.444124182244054E+05     0.124405945528488E+03     0.000000000000000E+00    -0.443500845714508E+05
     0.700000000000000E+01     0.800000000000000E+01    -0.324267728233502E+05     0.189262552391435E+04     0.195304931222101E+05     0.475475535627720E+05     0.107309154518694E+05     0.000000000000000E+00    -0.412650627513052E+05
     0.500000000000000E+01     0.900000000000000E+01    -0.224703869713830E+05     0.105580379067023E+05     0.206355021938968E+05     0.461638982852202E+05     0.204737926124775E+05     0.000000000000000E+00    -0.323861416771582E+05
     0.300000000000000E+01     0.100000000000000E+02    -0.646521821803629E+04     0.199995345155965E+05     0.175492578665137E+05     0.386653738808514E+05     0.287460624885891E+05     0.000000000000000E+00    -0.152117461910289E+05
 zone I=    6 ,j=    6 ,f=point, T="    1"
     0.240000000000000E+01     0.874358974358974E+01    -0.129455115147596E+05    -0.572148622554122E+04     0.102009904776972E+05     0.209388329992805E+05     0.148809260573178E+04     0.000000000000000E+00    -0.201550903460326E+05
     0.192000000000000E+01     0.874358974358974E+01    -0.118330862294310E+05    -0.693157136214286E+04     0.824252381623374E+04     0.176029635633174E+05     0.000000000000000E+00    -0.783177043448679E+03    -0.179814805481252E+05
     0.144000000000000E+01     0.874358974358974E+01    -0.109624730260659E+05    -0.787595764482298E+04     0.622963091484177E+04     0.145702249275677E+05     0.000000000000000E+00    -0.300127597496317E+04    -0.158371546959257E+05
     0.960000000000000E+00     0.874358974358974E+01    -0.103377170574131E+05    -0.855223835792247E+04     0.417584160501714E+04     0.119963125112957E+05     0.000000000000000E+00    -0.517477435691553E+04    -0.137151810584201E+05
     0.480000000000000E+00     0.874358974358974E+01    -0.996170771829332E+04    -0.895869441882774E+04     0.209475148552964E+04     0.101692616435589E+05     0.000000000000000E+00    -0.730625290162270E+04    -0.116141492354984E+05
     0.000000000000000E+00     0.874358974358974E+01    -0.983617864559884E+04    -0.909429437797054E+04    -0.163144629773084E-08     0.948701725643723E+04     0.000000000000000E+00    -0.909429437797054E+04    -0.983617864559884E+04
     0.252000000000000E+01     0.899487179487179E+01    -0.119353478311245E+05    -0.500446613832697E+03     0.113870639638453E+05     0.229287079314631E+05     0.652394201599124E+04     0.000000000000000E+00    -0.189597364609485E+05
     0.201600000000000E+01     0.899487179487179E+01    -0.105979546221077E+05    -0.186944635309803E+04     0.920850303906588E+04     0.187186738013735E+05     0.395664996618566E+04     0.000000000000000E+00    -0.164240509413914E+05
     0.151200000000000E+01     0.899487179487179E+01    -0.955099490489945E+04    -0.293818953075484E+04     0.696411921068171E+04     0.147407156303872E+05     0.146457473520124E+04     0.000000000000000E+00    -0.139537591708555E+05
     0.100800000000000E+01     0.899487179487179E+01    -0.879954242881279E+04    -0.370370194479861E+04     0.467027027744159E+04     0.111352030084104E+05     0.000000000000000E+00    -0.931535531121995E+03    -0.115717088424894E+05
     0.504000000000000E+00     0.899487179487179E+01    -0.834722130049996E+04    -0.416385916522623E+04     0.234339797565352E+04     0.829045926882168E+04     0.000000000000000E+00    -0.311441881511950E+04    -0.939666165060668E+04
     0.000000000000000E+00     0.899487179487179E+01    -0.819620598395232E+04    -0.431738653403579E+04    -0.172953102112408E-08     0.710150897136306E+04     0.000000000000000E+00    -0.431738653403579E+04    -0.819620598395232E+04
     0.264000000000000E+01     0.924615384615385E+01    -0.108237623177268E+05     0.468625989339818E+04     0.127008273880378E+05     0.259570968092842E+05     0.118124857521518E+05     0.000000000000000E+00    -0.179499881764805E+05
     0.211200000000000E+01     0.924615384615385E+01    -0.922507324246572E+04     0.314382314514890E+04     0.102793431040830E+05     0.209995781630623E+05     0.895571998278117E+04     0.000000000000000E+00    -0.150369700800980E+05
     0.158400000000000E+01     0.924615384615385E+01    -0.797324794795636E+04     0.193929506349578E+04     0.777883688195499E+04     0.162581345263403E+05     0.620663079542546E+04     0.000000000000000E+00    -0.122405836798860E+05
     0.105600000000000E+01     0.924615384615385E+01    -0.707458677784514E+04     0.107631693986649E+04     0.521894063420268E+04     0.118547356720363E+05     0.362254532073708E+04     0.000000000000000E+00    -0.962081515871573E+04
     0.528000000000000E+00     0.924615384615385E+01    -0.653358997759376E+04     0.557489696709526E+03     0.261939219222725E+04     0.819906386256305E+04     0.142013181967822E+04     0.000000000000000E+00    -0.739623210056246E+04
     0.000000000000000E+00     0.924615384615385E+01    -0.635295769447924E+04     0.384373887493799E+03    -0.178536901218474E-08     0.655360403132053E+04     0.384373887493799E+03     0.000000000000000E+00    -0.635295769447924E+04
     0.276000000000000E+01     0.949743589743590E+01    -0.957217285710292E+04     0.983470883978711E+04     0.141558387241281E+05     0.297262650552325E+05     0.172935677871968E+05     0.000000000000000E+00    -0.170310318045126E+05
     0.220800000000000E+01     0.949743589743590E+01    -0.767137384562872E+04     0.810331572402865E+04     0.114661980791097E+05     0.241059818692167E+05     0.141330074823776E+05     0.000000000000000E+00    -0.137010656039777E+05
     0.165600000000000E+01     0.949743589743590E+01    -0.618263856389713E+04     0.675078313885469E+04     0.868232949693346E+04     0.187532472188255E+05     0.111100223487262E+05     0.000000000000000E+00    -0.105418777737687E+05
     0.110400000000000E+01     0.949743589743590E+01    -0.511371904984690E+04     0.578153120561966E+04     0.582763563349652E+04     0.138211925352401E+05     0.831124627428702E+04     0.000000000000000E+00    -0.764343411851426E+04
     0.552000000000000E+00     0.949743589743590E+01    -0.447015247343425E+04     0.519871715386293E+04     0.292565142617508E+04     0.979419676788686E+04     0.601505186611944E+04     0.000000000000000E+00    -0.528648718569076E+04
     0.000000000000000E+00     0.949743589743590E+01    -0.425526113663293E+04     0.500423532130787E+04    -0.179224351728365E-08     0.802769870967335E+04     0.500423532130787E+04     0.000000000000000E+00    -0.425526113663293E+04
     0.288000000000000E+01     0.974871794871795E+01    -0.813618171058596E+04     0.149406582727081E+05     0.157667310096262E+05     0.340110284058239E+05     0.229400207200572E+05     0.000000000000000E+00    -0.161355441579351E+05
     0.230400000000000E+01     0.974871794871795E+01    -0.588759338406727E+04     0.130037309533039E+05     0.127811049101476E+05     0.277559251883897E+05     0.194507456053788E+05     0.000000000000000E+00    -0.123346080361422E+05
     0.172800000000000E+01     0.974871794871795E+01    -0.412608030819228E+04     0.114901336171239E+05     0.968381814905931E+04     0.218583147826468E+05     0.161215953079345E+05     0.000000000000000E+00    -0.875754199900285E+04
     0.115200000000000E+01     0.974871794871795E+01    -0.286110076606463E+04     0.104051899966504E+05     0.650259496673669E+04     0.165249931145136E+05     0.130608744098178E+05     0.000000000000000E+00    -0.551678517923202E+04
     0.576000000000000E+00     0.974871794871795E+01    -0.209941067418695E+04     0.975270275794272E+04     0.326532325357832E+04     0.123282063734734E+05     0.105927737492432E+05     0.000000000000000E+00    -0.293948166548742E+04
     0.000000000000000E+00     0.974871794871795E+01    -0.184506358246076E+04     0.953495350063607E+04    -0.174311399998004E-08     0.105788559564395E+05     0.953495350063607E+04     0.000000000000000E+00    -0.184506358246076E+04
     0.300000000000000E+01     0.100000000000000E+02    -0.646521821803628E+04     0.199995345155965E+05     0.175492578665137E+05     0.386653738808514E+05     0.287460624885891E+05     0.000000000000000E+00    -0.152117461910289E+05
     0.240000000000000E+01     0.100000000000000E+02    -0.381790045120541E+04     0.178393730124292E+05     0.142370206964092E+05     0.317648676769671E+05     0.248979420931374E+05     0.000000000000000E+00    -0.108764695319136E+05
     0.180000000000000E+01     0.100000000000000E+02    -0.174360755404403E+04     0.161507592669811E+05     0.107932279162450E+05     0.253284244401420E+05     0.212230572959998E+05     0.000000000000000E+00    -0.681590558306273E+04
     0.120000000000000E+01     0.100000000000000E+02    -0.253790502105119E+03     0.149400593781575E+05     0.725053427177849E+04     0.196156103828456E+05     0.178447303059038E+05     0.000000000000000E+00    -0.315846142985139E+04
     0.600000000000000E+00     0.100000000000000E+02     0.643371436359197E+03     0.142118205594619E+05     0.364179521455927E+04     0.152654612824902E+05     0.151274904963010E+05     0.000000000000000E+00    -0.272298500479895E+03
     0.000000000000000E+00     0.100000000000000E+02     0.942970700397673E+03     0.139687711389963E+05    -0.163061006249129E-08     0.135219680139701E+05     0.139687711389963E+05     0.942970700397673E+03     0.000000000000000E+00
 zone I=    6 ,j=    6 ,f=point, T="    1"
     0.000000000000000E+00     0.371794871794872E+01    -0.349560267393033E+05    -0.113515263838489E+06     0.146699632062383E-08     0.100695562621514E+06     0.000000000000000E+00    -0.349560267393033E+05    -0.113515263838489E+06
    -0.208000000000000E+01     0.392307692307692E+01    -0.343080147191391E+05    -0.107385968239574E+06    -0.383950404513490E+04     0.952303105301299E+05     0.000000000000000E+00    -0.341068415885856E+05    -0.107587141370128E+06
    -0.416000000000000E+01     0.412820512820513E+01    -0.345133685773567E+05    -0.978839546068938E+05    -0.737883370691007E+04     0.869337548798316E+05     0.000000000000000E+00    -0.336655249418425E+05    -0.987317982424081E+05
    -0.624000000000000E+01     0.433333333333333E+01    -0.354931011552966E+05    -0.851279566270902E+05    -0.101373818690149E+05     0.761142140923070E+05     0.000000000000000E+00    -0.335024847517062E+05    -0.871185730306805E+05
    -0.832000000000000E+01     0.453846153846154E+01    -0.369428247281643E+05    -0.694206328232669E+05    -0.116239733251962E+05     0.634409375495439E+05     0.000000000000000E+00    -0.332112815966850E+05    -0.731521759547462E+05
    -0.104000000000000E+02     0.474358974358974E+01    -0.382871195232706E+05    -0.512640588459172E+05    -0.113602694664444E+05     0.501828782506140E+05     0.000000000000000E+00    -0.316929303991580E+05    -0.578582479700298E+05
     0.000000000000000E+00     0.472307692307692E+01    -0.297667369431778E+05    -0.918302887180135E+05     0.136333455812147E-08     0.811503081115092E+05     0.000000000000000E+00    -0.297667369431778E+05    -0.918302887180135E+05
    -0.176000000000000E+01     0.488717948717949E+01    -0.293332618276264E+05    -0.870207577686947E+05    -0.364593972759415E+04     0.769436708866304E+05     0.000000000000000E+00    -0.291037459035625E+05    -0.872502736927587E+05
    -0.352000000000000E+01     0.505128205128205E+01    -0.297713996217842E+05    -0.796208752545832E+05    -0.711413468831961E+04     0.707617683032024E+05     0.000000000000000E+00    -0.287760011040552E+05    -0.806162737723122E+05
    -0.528000000000000E+01     0.521538461538461E+01    -0.310651447653162E+05    -0.696786857256135E+05    -0.100565039708847E+05     0.629204562997200E+05     0.000000000000000E+00    -0.286030232550681E+05    -0.721408072358615E+05
    -0.704000000000000E+01     0.537948717948718E+01    -0.330741505010511E+05    -0.573408178838161E+05    -0.121090108153162E+05     0.540856211500320E+05     0.000000000000000E+00    -0.280655493718866E+05    -0.623494190129807E+05
    -0.880000000000000E+01     0.554358974358974E+01    -0.355146979771156E+05    -0.428588822424658E+05    -0.129022637083720E+05     0.455572445106426E+05     0.000000000000000E+00    -0.257721462669141E+05    -0.526014339526674E+05
     0.000000000000000E+00     0.572820512820513E+01    -0.246558149283538E+05    -0.704049050488436E+05     0.811329701894017E-09     0.618778599806531E+05     0.000000000000000E+00    -0.246558149283538E+05    -0.704049050488436E+05
    -0.144000000000000E+01     0.585128205128205E+01    -0.244386080946740E+05    -0.668731276709412E+05    -0.343776132983506E+04     0.589103490039446E+05     0.000000000000000E+00    -0.241619078968474E+05    -0.671498278687678E+05
    -0.288000000000000E+01     0.597435897435897E+01    -0.250510359011377E+05    -0.614705116523895E+05    -0.679230644452358E+04     0.548150024060045E+05     0.000000000000000E+00    -0.238254970785707E+05    -0.626960504749566E+05
    -0.432000000000000E+01     0.609743589743590E+01    -0.265138503333360E+05    -0.542090770581871E+05    -0.983809779784296E+04     0.499467861229301E+05     0.000000000000000E+00    -0.233748641503802E+05    -0.573480632411429E+05
    -0.576000000000000E+01     0.622051282051282E+01    -0.287867128725502E+05    -0.451472070126424E+05    -0.123386253057015E+05     0.449892262334218E+05     0.000000000000000E+00    -0.221629700560321E+05    -0.517709498291605E+05
    -0.720000000000000E+01     0.634358974358974E+01    -0.317616540253743E+05    -0.343918179845773E+05    -0.140505168907551E+05     0.411279693307883E+05     0.000000000000000E+00    -0.189648096477960E+05    -0.471886623621556E+05
     0.000000000000000E+00     0.673333333333333E+01    -0.198274356240264E+05    -0.493511759251406E+05    -0.298624501889726E-10     0.430134688788682E+05     0.000000000000000E+00    -0.198274356240264E+05    -0.493511759251406E+05
    -0.112000000000000E+01     0.681538461538462E+01    -0.197849454769822E+05    -0.470419695155646E+05    -0.317364055070159E+04     0.412781315525586E+05     0.000000000000000E+00    -0.194203043775149E+05    -0.474066106150320E+05
    -0.224000000000000E+01     0.689743589743590E+01    -0.204497136845340E+05    -0.435042892757620E+05    -0.632433268645225E+04     0.392575504485049E+05     0.000000000000000E+00    -0.188287868541297E+05    -0.451252161061662E+05
    -0.336000000000000E+01     0.697948717948718E+01    -0.218466484364861E+05    -0.387378091765757E+05    -0.932712359170998E+04     0.373173996000924E+05     0.000000000000000E+00    -0.177095795512302E+05    -0.428748780618316E+05
    -0.448000000000000E+01     0.706153846153846E+01    -0.239754982162274E+05    -0.327601187658002E+05    -0.120522827588381E+05     0.360330721189545E+05     0.000000000000000E+00    -0.155401076350935E+05    -0.411955093469342E+05
    -0.560000000000000E+01     0.714358974358974E+01    -0.268092066706633E+05    -0.256072594973440E+05    -0.143665619755508E+05     0.361545197469567E+05     0.000000000000000E+00    -0.118291068153736E+05    -0.405873593526337E+05
     0.000000000000000E+00     0.773846153846154E+01    -0.151685261177411E+05    -0.288344754005473E+05    -0.939983152699316E-09     0.249826872654804E+05     0.000000000000000E+00    -0.151685261177411E+05    -0.288344754005473E+05
    -0.800000000000000E+00     0.777948717948718E+01    -0.152199779706631E+05    -0.276701067189932E+05    -0.277418676525198E+04     0.244792250119252E+05     0.000000000000000E+00    -0.146297992331704E+05    -0.282602854564858E+05
    -0.160000000000000E+01     0.782051282051282E+01    -0.157748905376553E+05    -0.258210164869030E+05    -0.554579601449833E+04     0.245054262469215E+05     0.000000000000000E+00    -0.133155063803935E+05    -0.282804006441647E+05
    -0.240000000000000E+01     0.786153846153846E+01    -0.168439776932458E+05    -0.232864359299735E+05    -0.826112570004712E+04     0.252681631502488E+05     0.000000000000000E+00    -0.111982730199896E+05    -0.289321406032298E+05
    -0.320000000000000E+01     0.790256410256410E+01    -0.184303245867507E+05    -0.200705675121634E+05    -0.108654150949820E+05     0.269586573534852E+05     0.000000000000000E+00    -0.835412353221053E+04    -0.301467685667036E+05
    -0.400000000000000E+01     0.794358974358974E+01    -0.205291643415452E+05    -0.161826560049150E+05    -0.133031031300869E+05     0.296989258727848E+05     0.000000000000000E+00    -0.487645964400502E+04    -0.318353607024551E+05
     0.000000000000000E+00     0.874358974358974E+01    -0.983617864559884E+04    -0.909429437797054E+04    -0.163144629773084E-08     0.948701725643723E+04     0.000000000000000E+00    -0.909429437797054E+04    -0.983617864559884E+04
    -0.480000000000000E+00     0.874358974358974E+01    -0.996170771829378E+04    -0.895869441882821E+04    -0.209475148553291E+04     0.101692616435614E+05     0.000000000000000E+00    -0.730625290161998E+04    -0.116141492355020E+05
    -0.960000000000000E+00     0.874358974358974E+01    -0.103377170574140E+05    -0.855223835792340E+04    -0.417584160502043E+04     0.119963125112998E+05     0.000000000000000E+00    -0.517477435691322E+04    -0.137151810584242E+05
    -0.144000000000000E+01     0.874358974358974E+01    -0.109624730260671E+05    -0.787595764482432E+04    -0.622963091484509E+04     0.145702249275727E+05     0.000000000000000E+00    -0.300127597496123E+04    -0.158371546959301E+05
    -0.192000000000000E+01     0.874358974358974E+01    -0.118330862294324E+05    -0.693157136214460E+04    -0.824252381623707E+04     0.176029635633228E+05     0.000000000000000E+00    -0.783177043447100E+03    -0.179814805481299E+05
    -0.240000000000000E+01     0.874358974358974E+01    -0.129455115147611E+05    -0.572148622554325E+04    -0.102009904777006E+05     0.209388329992860E+05     0.148809260573308E+04     0.000000000000000E+00    -0.201550903460374E+05
 zone I=    6 ,j=    6 ,f=point, T="    1"
     0.000000000000000E+00     0.874358974358974E+01    -0.983617864559884E+04    -0.909429437797054E+04    -0.163144629773084E-08     0.948701725643723E+04     0.000000000000000E+00    -0.909429437797054E+04    -0.983617864559884E+04
    -0.480000000000000E+00     0.874358974358974E+01    -0.996170771829378E+04    -0.895869441882821E+04    -0.209475148553291E+04     0.101692616435614E+05     0.000000000000000E+00    -0.730625290161998E+04    -0.116141492355020E+05
    -0.960000000000000E+00     0.874358974358974E+01    -0.103377170574140E+05    -0.855223835792340E+04    -0.417584160502043E+04     0.119963125112998E+05     0.000000000000000E+00    -0.517477435691322E+04    -0.137151810584242E+05
    -0.144000000000000E+01     0.874358974358974E+01    -0.109624730260671E+05    -0.787595764482432E+04    -0.622963091484508E+04     0.145702249275727E+05     0.000000000000000E+00    -0.300127597496124E+04    -0.158371546959301E+05
    -0.192000000000000E+01     0.874358974358974E+01    -0.118330862294324E+05    -0.693157136214460E+04    -0.824252381623707E+04     0.176029635633228E+05     0.000000000000000E+00    -0.783177043447102E+03    -0.179814805481299E+05
    -0.240000000000000E+01     0.874358974358974E+01    -0.129455115147611E+05    -0.572148622554325E+04    -0.102009904777006E+05     0.209388329992860E+05     0.148809260573308E+04     0.000000000000000E+00    -0.201550903460374E+05
     0.000000000000000E+00     0.899487179487179E+01    -0.819620598395232E+04    -0.431738653403579E+04    -0.172953102112408E-08     0.710150897136306E+04     0.000000000000000E+00    -0.431738653403579E+04    -0.819620598395232E+04
    -0.504000000000000E+00     0.899487179487179E+01    -0.834722130050027E+04    -0.416385916522675E+04    -0.234339797565697E+04     0.829045926882485E+04     0.000000000000000E+00    -0.311441881511741E+04    -0.939666165060961E+04
    -0.100800000000000E+01     0.899487179487179E+01    -0.879954242881335E+04    -0.370370194479954E+04    -0.467027027744503E+04     0.111352030084151E+05     0.000000000000000E+00    -0.931535531119811E+03    -0.115717088424931E+05
    -0.151200000000000E+01     0.899487179487179E+01    -0.955099490490018E+04    -0.293818953075618E+04    -0.696411921068511E+04     0.147407156303923E+05     0.146457473520315E+04     0.000000000000000E+00    -0.139537591708595E+05
    -0.201600000000000E+01     0.899487179487179E+01    -0.105979546221085E+05    -0.186944635309977E+04    -0.920850303906922E+04     0.187186738013785E+05     0.395664996618721E+04     0.000000000000000E+00    -0.164240509413955E+05
    -0.252000000000000E+01     0.899487179487179E+01    -0.119353478311251E+05    -0.500446613834676E+03    -0.113870639638485E+05     0.229287079314677E+05     0.652394201599254E+04     0.000000000000000E+00    -0.189597364609523E+05
     0.000000000000000E+00     0.924615384615385E+01    -0.635295769447924E+04     0.384373887493799E+03    -0.178536901218474E-08     0.655360403132053E+04     0.384373887493799E+03     0.000000000000000E+00    -0.635295769447924E+04
    -0.528000000000000E+00     0.924615384615385E+01    -0.653358997759389E+04     0.557489696709061E+03    -0.261939219223080E+04     0.819906386256634E+04     0.142013181967990E+04     0.000000000000000E+00    -0.739623210056473E+04
    -0.105600000000000E+01     0.924615384615385E+01    -0.707458677784533E+04     0.107631693986556E+04    -0.521894063420617E+04     0.118547356720407E+05     0.362254532073905E+04     0.000000000000000E+00    -0.962081515871881E+04
    -0.158400000000000E+01     0.924615384615385E+01    -0.797324794795650E+04     0.193929506349438E+04    -0.777883688195838E+04     0.162581345263447E+05     0.620663079542721E+04     0.000000000000000E+00    -0.122405836798893E+05
    -0.211200000000000E+01     0.924615384615385E+01    -0.922507324246563E+04     0.314382314514715E+04    -0.102793431040862E+05     0.209995781630663E+05     0.895571998278262E+04     0.000000000000000E+00    -0.150369700801011E+05
    -0.264000000000000E+01     0.924615384615385E+01    -0.108237623177263E+05     0.468625989339620E+04    -0.127008273880408E+05     0.259570968092874E+05     0.118124857521530E+05     0.000000000000000E+00    -0.179499881764831E+05
     0.000000000000000E+00     0.949743589743590E+01    -0.425526113663293E+04     0.500423532130787E+04    -0.179224351728365E-08     0.802769870967335E+04     0.500423532130787E+04     0.000000000000000E+00    -0.425526113663293E+04
    -0.552000000000000E+00     0.949743589743590E+01    -0.447015247343415E+04     0.519871715386241E+04    -0.292565142617863E+04     0.979419676788957E+04     0.601505186612080E+04     0.000000000000000E+00    -0.528648718569254E+04
    -0.110400000000000E+01     0.949743589743590E+01    -0.511371904984662E+04     0.578153120561872E+04    -0.582763563349995E+04     0.138211925352438E+05     0.831124627428879E+04     0.000000000000000E+00    -0.764343411851668E+04
    -0.165600000000000E+01     0.949743589743590E+01    -0.618263856389654E+04     0.675078313885329E+04    -0.868232949693670E+04     0.187532472188289E+05     0.111100223487278E+05     0.000000000000000E+00    -0.105418777737711E+05
    -0.220800000000000E+01     0.949743589743590E+01    -0.767137384562759E+04     0.810331572402708E+04    -0.114661980791126E+05     0.241059818692196E+05     0.141330074823790E+05     0.000000000000000E+00    -0.137010656039796E+05
    -0.276000000000000E+01     0.949743589743590E+01    -0.957217285710094E+04     0.983470883978525E+04    -0.141558387241306E+05     0.297262650552342E+05     0.172935677871978E+05     0.000000000000000E+00    -0.170310318045135E+05
     0.000000000000000E+00     0.974871794871795E+01    -0.184506358246076E+04     0.953495350063607E+04    -0.174311399998004E-08     0.105788559564395E+05     0.953495350063607E+04     0.000000000000000E+00    -0.184506358246076E+04
    -0.576000000000000E+00     0.974871794871795E+01    -0.209941067418656E+04     0.975270275794226E+04    -0.326532325358175E+04     0.123282063734755E+05     0.105927737492444E+05     0.000000000000000E+00    -0.293948166548873E+04
    -0.115200000000000E+01     0.974871794871795E+01    -0.286110076606378E+04     0.104051899966496E+05    -0.650259496673993E+04     0.165249931145164E+05     0.130608744098195E+05     0.000000000000000E+00    -0.551678517923370E+04
    -0.172800000000000E+01     0.974871794871795E+01    -0.412608030819078E+04     0.114901336171226E+05    -0.968381814906224E+04     0.218583147826493E+05     0.161215953079360E+05     0.000000000000000E+00    -0.875754199900415E+04
    -0.230400000000000E+01     0.974871794871795E+01    -0.588759338406486E+04     0.130037309533024E+05    -0.127811049101501E+05     0.277559251883912E+05     0.194507456053801E+05     0.000000000000000E+00    -0.123346080361425E+05
    -0.288000000000000E+01     0.974871794871795E+01    -0.813618171058228E+04     0.149406582727065E+05    -0.157667310096280E+05     0.340110284058238E+05     0.229400207200582E+05     0.000000000000000E+00    -0.161355441579340E+05
     0.000000000000000E+00     0.100000000000000E+02     0.942970700397673E+03     0.139687711389963E+05    -0.163061006249129E-08     0.135219680139701E+05     0.139687711389963E+05     0.942970700397673E+03     0.000000000000000E+00
    -0.600000000000000E+00     0.100000000000000E+02     0.643371436359914E+03     0.142118205594615E+05    -0.364179521456244E+04     0.152654612824918E+05     0.151274904963021E+05     0.000000000000000E+00    -0.272298500480746E+03
    -0.120000000000000E+01     0.100000000000000E+02    -0.253790502103569E+03     0.149400593781567E+05    -0.725053427178141E+04     0.196156103828475E+05     0.178447303059053E+05     0.000000000000000E+00    -0.315846142985218E+04
    -0.180000000000000E+01     0.100000000000000E+02    -0.174360755404145E+04     0.161507592669800E+05    -0.107932279162475E+05     0.253284244401434E+05     0.212230572960013E+05     0.000000000000000E+00    -0.681590558306271E+04
    -0.240000000000000E+01     0.100000000000000E+02    -0.381790045120147E+04     0.178393730124279E+05    -0.142370206964110E+05     0.317648676769671E+05     0.248979420931386E+05     0.000000000000000E+00    -0.108764695319122E+05
    -0.300000000000000E+01     0.100000000000000E+02    -0.646521821803055E+04     0.199995345155954E+05    -0.175492578665146E+05     0.386653738808494E+05     0.287460624885900E+05     0.000000000000000E+00    -0.152117461910252E+05
 zone I=    6 ,j=    6 ,f=point, T="    1"
    -0.240000000000000E+01     0.874358974358974E+01    -0.129455115147611E+05    -0.572148622554325E+04    -0.102009904777006E+05     0.209388329992860E+05     0.148809260573308E+04     0.000000000000000E+00    -0.201550903460374E+05
    -0.400000000000000E+01     0.794358974358974E+01    -0.205291643415452E+05    -0.161826560049150E+05    -0.133031031300869E+05     0.296989258727848E+05     0.000000000000000E+00    -0.487645964400502E+04    -0.318353607024551E+05
    -0.560000000000000E+01     0.714358974358974E+01    -0.268092066706633E+05    -0.256072594973440E+05    -0.143665619755508E+05     0.361545197469567E+05     0.000000000000000E+00    -0.118291068153736E+05    -0.405873593526337E+05
    -0.720000000000000E+01     0.634358974358974E+01    -0.317616540253743E+05    -0.343918179845773E+05    -0.140505168907551E+05     0.411279693307883E+05     0.000000000000000E+00    -0.189648096477960E+05    -0.471886623621556E+05
    -0.880000000000000E+01     0.554358974358974E+01    -0.355146979771156E+05    -0.428588822424658E+05    -0.129022637083720E+05     0.455572445106426E+05     0.000000000000000E+00    -0.257721462669141E+05    -0.526014339526674E+05
    -0.104000000000000E+02     0.474358974358974E+01    -0.382871195232706E+05    -0.512640588459172E+05    -0.113602694664444E+05     0.501828782506140E+05     0.000000000000000E+00    -0.316929303991580E+05    -0.578582479700298E+05
    -0.252000000000000E+01     0.899487179487179E+01    -0.119353478311251E+05    -0.500446613834676E+03    -0.113870639638485E+05     0.229287079314677E+05     0.652394201599254E+04     0.000000000000000E+00    -0.189597364609523E+05
    -0.420000000000000E+01     0.815487179487180E+01    -0.206655038334911E+05    -0.109319912596131E+05    -0.145511010611415E+05     0.309169856322334E+05     0.000000000000000E+00    -0.455349655341241E+03    -0.311421454377629E+05
    -0.588000000000000E+01     0.731487179487180E+01    -0.275160039465426E+05    -0.203244019903637E+05    -0.153367772984349E+05     0.362851991558465E+05     0.000000000000000E+00    -0.816753581092660E+04    -0.396728701259797E+05
    -0.756000000000000E+01     0.647487179487180E+01    -0.325776688803046E+05    -0.291389390629760E+05    -0.145715113558939E+05     0.399761228817707E+05     0.000000000000000E+00    -0.161857050578796E+05    -0.455309028854011E+05
    -0.924000000000000E+01     0.563487179487180E+01    -0.361194422331952E+05    -0.377434422342853E+05    -0.129359683673426E+05     0.432195244104954E+05     0.000000000000000E+00    -0.239700140098996E+05    -0.498928704575809E+05
    -0.109200000000000E+02     0.479487179487179E+01    -0.385097886215734E+05    -0.464212983045348E+05    -0.109679209902443E+05     0.470228906305743E+05     0.000000000000000E+00    -0.308060714675417E+05    -0.541250154585665E+05
    -0.264000000000000E+01     0.924615384615385E+01    -0.108237623177263E+05     0.468625989339620E+04    -0.127008273880408E+05     0.259570968092874E+05     0.118124857521530E+05     0.000000000000000E+00    -0.179499881764831E+05
    -0.440000000000000E+01     0.836615384615385E+01    -0.209258599773930E+05    -0.563435387585397E+04    -0.158987262378198E+05     0.333172980158659E+05     0.436152099424850E+04     0.000000000000000E+00    -0.309217348474955E+05
    -0.616000000000000E+01     0.748615384615385E+01    -0.284153433472444E+05    -0.149364479931206E+05    -0.163369138601528E+05     0.375071883977240E+05     0.000000000000000E+00    -0.400346206680155E+04    -0.393483292735634E+05
    -0.792000000000000E+01     0.660615384615385E+01    -0.335436256200882E+05    -0.237523604874481E+05    -0.150436513096320E+05     0.396426978756411E+05     0.000000000000000E+00    -0.128277951109419E+05    -0.444681909965944E+05
    -0.968000000000000E+01     0.572615384615385E+01    -0.367684237341571E+05    -0.324976761282486E+05    -0.128574303668902E+05     0.413408775703965E+05     0.000000000000000E+00    -0.215995033333740E+05    -0.476665965290317E+05
    -0.114400000000000E+02     0.484615384615384E+01    -0.386545725021371E+05    -0.414825423596898E+05    -0.104318457329495E+05     0.440222395036758E+05     0.000000000000000E+00    -0.295413185348466E+05    -0.505957963269803E+05
    -0.276000000000000E+01     0.949743589743590E+01    -0.957217285710094E+04     0.983470883978525E+04    -0.141558387241306E+05     0.297262650552342E+05     0.172935677871978E+05     0.000000000000000E+00    -0.170310318045135E+05
    -0.460000000000000E+01     0.857743589743590E+01    -0.213126997949444E+05    -0.288008190050052E+03    -0.173552336678626E+05     0.367666737164551E+05     0.949037171991483E+04     0.000000000000000E+00    -0.310910797049092E+05
    -0.644000000000000E+01     0.765743589743590E+01    -0.295227044316254E+05    -0.943999458429604E+04    -0.173682727774650E+05     0.398369188389066E+05     0.580696947359735E+03     0.000000000000000E+00    -0.395433959632812E+05
    -0.828000000000000E+01     0.673743589743590E+01    -0.346695879272378E+05    -0.182311512473705E+05    -0.154611255969781E+05     0.402421161948534E+05     0.000000000000000E+00    -0.894031662207780E+04    -0.439604225525305E+05
    -0.101200000000000E+02     0.581743589743590E+01    -0.374573470851527E+05    -0.271268572665983E+05    -0.126577322990029E+05     0.400433975670808E+05     0.000000000000000E+00    -0.186210399667406E+05    -0.459631643850104E+05
    -0.119600000000000E+02     0.489743589743590E+01    -0.387027016567367E+05    -0.364621023211774E+05    -0.974588854174725E+04     0.412449898011980E+05     0.000000000000000E+00    -0.277723349752314E+05    -0.473924690026827E+05
    -0.288000000000000E+01     0.974871794871795E+01    -0.813618171058228E+04     0.149406582727065E+05    -0.157667310096280E+05     0.340110284058238E+05     0.229400207200582E+05     0.000000000000000E+00    -0.161355441579340E+05
    -0.480000000000000E+01     0.878871794871795E+01    -0.218274474915804E+05     0.510883880752520E+04    -0.189305895701966E+05     0.410992977214805E+05     0.148733903224336E+05     0.000000000000000E+00    -0.315919990064888E+05
    -0.672000000000000E+01     0.782871794871795E+01    -0.308542381337775E+05    -0.383151884237636E+04    -0.184322797386541E+05     0.432168111013596E+05     0.551113157229246E+04     0.000000000000000E+00    -0.401968885484463E+05
    -0.864000000000000E+01     0.686871794871795E+01    -0.359660814733208E+05    -0.125744708297702E+05    -0.158178313676926E+05     0.418333988384540E+05     0.000000000000000E+00    -0.459807110733074E+04    -0.439424811957602E+05
    -0.105600000000000E+02     0.590871794871795E+01    -0.381813277209714E+05    -0.216367440355460E+05    -0.123276756622864E+05     0.394430935128520E+05     0.000000000000000E+00    -0.150630802146600E+05    -0.447549915418574E+05
    -0.124800000000000E+02     0.494871794871795E+01    -0.386339022382710E+05    -0.313752197638504E+05    -0.890417296818102E+04     0.387645267360145E+05     0.000000000000000E+00    -0.253891351621599E+05    -0.446199868399615E+05
    -0.300000000000000E+01     0.100000000000000E+02    -0.646521821803055E+04     0.199995345155954E+05    -0.175492578665146E+05     0.386653738808494E+05     0.287460624885900E+05     0.000000000000000E+00    -0.152117461910252E+05
    -0.500000000000000E+01     0.900000000000000E+01    -0.224703869713780E+05     0.105580379067006E+05    -0.206355021938978E+05     0.461638982852177E+05     0.204737926124778E+05     0.000000000000000E+00    -0.323861416771553E+05
    -0.700000000000000E+01     0.800000000000000E+01    -0.324267728233446E+05     0.189262552391356E+04    -0.195304931222127E+05     0.475475535627709E+05     0.107309154518716E+05     0.000000000000000E+00    -0.412650627513026E+05
    -0.900000000000000E+01     0.700000000000000E+01    -0.374441072345998E+05    -0.678157139131386E+04    -0.161073678979857E+05     0.444124182244045E+05     0.124405945533661E+03     0.000000000000000E+00    -0.443500845714473E+05
    -0.110000000000000E+02     0.600000000000000E+01    -0.389348719411449E+05    -0.160335906420290E+05    -0.118577785313246E+05     0.396302311201840E+05     0.000000000000000E+00    -0.110001758748137E+05    -0.439682867083602E+05
    -0.130000000000000E+02     0.500000000000000E+01    -0.384263514987687E+05    -0.262380816568090E+05    -0.790112412429038E+04     0.366615733080387E+05     0.000000000000000E+00    -0.223539280039627E+05    -0.423105051516150E+05
 zone I=    6 ,j=    6 ,f=point, T="    2"
     0.000000000000000E+00    -0.190000000000000E+02    -0.943891116079664E+05    -0.480225787236655E+06     0.684264689952710E-10     0.440679050657848E+06     0.000000000000000E+00    -0.943891116079664E+05    -0.480225787236655E+06
    -0.104000000000000E+02    -0.190000000000000E+02    -0.937421926538999E+05    -0.478181715825442E+06    -0.253221245000687E+04     0.438906351975589E+06     0.000000000000000E+00    -0.937255142914066E+05    -0.478198394187936E+06
    -0.208000000000000E+02    -0.190000000000000E+02    -0.920160161437198E+05    -0.472145585990911E+06    -0.259539893935782E+04     0.433547752873775E+06     0.000000000000000E+00    -0.919982964444357E+05    -0.472163305690195E+06
    -0.312000000000000E+02    -0.190000000000000E+02    -0.898543231334824E+05    -0.462405650930372E+06    -0.134700075134599E+04     0.424675266355064E+06     0.000000000000000E+00    -0.898494529661518E+05    -0.462410521097703E+06
    -0.416000000000000E+02    -0.190000000000000E+02    -0.883300153832817E+05    -0.449442332639347E+06    -0.719739365716336E+04     0.412621813839677E+06     0.000000000000000E+00    -0.881866197950201E+05    -0.449585728227609E+06
    -0.520000000000000E+02    -0.190000000000000E+02    -0.889451553572491E+05    -0.433928221911562E+06    -0.394363551598501E+05     0.402833473839895E+06     0.000000000000000E+00    -0.844944518434172E+05    -0.438378925425394E+06
    -0.704000000000000E+01    -0.159600000000000E+02    -0.830727342918049E+05    -0.414380859729882E+06    -0.172100200402346E+04     0.379733736427166E+06     0.000000000000000E+00    -0.830637946741087E+05    -0.414389799347578E+06
    -0.160320000000000E+02    -0.159600000000000E+02    -0.825355301208419E+05    -0.409793961085383E+06    -0.254064451174369E+04     0.375419774491808E+06     0.000000000000000E+00    -0.825158072201263E+05    -0.409813683986099E+06
    -0.250240000000000E+02    -0.159600000000000E+02    -0.815879844526169E+05    -0.402581145639570E+06    -0.145988021150619E+04     0.368630963879659E+06     0.000000000000000E+00    -0.815813450396703E+05    -0.402587785052516E+06
    -0.340160000000000E+02    -0.159600000000000E+02    -0.802442223745424E+05    -0.394339985276745E+06    -0.112361675672404E+04     0.360975679633248E+06     0.000000000000000E+00    -0.802402029046579E+05    -0.394344004746629E+06
    -0.430080000000000E+02    -0.159600000000000E+02    -0.785245562687509E+05    -0.387367845645030E+06    -0.905315803081305E+04     0.355032314861352E+06     0.000000000000000E+00    -0.782594076663161E+05    -0.387632994247464E+06
    -0.520000000000000E+02    -0.159600000000000E+02    -0.764554858120948E+05    -0.384661886156362E+06    -0.393984641735738E+05     0.359245617273700E+06     0.000000000000000E+00    -0.714988378687186E+05    -0.389618534099739E+06
    -0.140800000000000E+02    -0.129200000000000E+02    -0.721185958760275E+05    -0.345570461622676E+06    -0.244803144723326E+04     0.315778336689965E+06     0.000000000000000E+00    -0.720966820458390E+05    -0.345592375452865E+06
    -0.216640000000000E+02    -0.129200000000000E+02    -0.721158524876713E+05    -0.339476857223857E+06    -0.180879676874719E+04     0.309795715027385E+06     0.000000000000000E+00    -0.721036158639389E+05    -0.339489093847590E+06
    -0.292480000000000E+02    -0.129200000000000E+02    -0.717440837172076E+05    -0.332887237080561E+06    -0.520654939821762E+03     0.303445628735615E+06     0.000000000000000E+00    -0.717430456639969E+05    -0.332888275133772E+06
    -0.368320000000000E+02    -0.129200000000000E+02    -0.706169537753819E+05    -0.327996365784063E+06    -0.158327819476577E+04     0.299021380901980E+06     0.000000000000000E+00    -0.706072145543229E+05    -0.328006105005122E+06
    -0.444160000000000E+02    -0.129200000000000E+02    -0.682330274611821E+05    -0.327652884994316E+06    -0.108804136614073E+05     0.300017601127658E+06     0.000000000000000E+00    -0.677774883721338E+05    -0.328108424083365E+06
    -0.520000000000000E+02    -0.129200000000000E+02    -0.639757701618381E+05    -0.335359313439949E+06    -0.379277233498946E+05     0.315308475173070E+06     0.000000000000000E+00    -0.587747843963636E+05    -0.340560299205423E+06
    -0.211200000000000E+02    -0.988000000000000E+01    -0.617863449867792E+05    -0.273902765839334E+06    -0.201580410470597E+04     0.248855414200386E+06     0.000000000000000E+00    -0.617671899432587E+05    -0.273921920882855E+06
    -0.272960000000000E+02    -0.988000000000000E+01    -0.622058112153337E+05    -0.268421631476811E+06    -0.727910613480700E+03     0.243359691447569E+06     0.000000000000000E+00    -0.622032418331262E+05    -0.268424200859019E+06
    -0.334720000000000E+02    -0.988000000000000E+01    -0.619885647761976E+05    -0.264581834897971E+06    -0.107243570707687E+03     0.239677107403611E+06     0.000000000000000E+00    -0.619885080063936E+05    -0.264581891667775E+06
    -0.396480000000000E+02    -0.988000000000000E+01    -0.606297775068625E+05    -0.264446664150240E+06    -0.268513877365752E+04     0.239992282379167E+06     0.000000000000000E+00    -0.605944089001971E+05    -0.264482032756905E+06
    -0.458240000000000E+02    -0.988000000000000E+01    -0.575220074108400E+05    -0.270498801270678E+06    -0.124444682313188E+05     0.247756620785020E+06     0.000000000000000E+00    -0.567973292507109E+05    -0.271223479430807E+06
    -0.520000000000000E+02    -0.988000000000000E+01    -0.519551986576616E+05    -0.285640322285973E+06    -0.350874666355850E+05     0.270448937211621E+06     0.000000000000000E+00    -0.468005696590855E+05    -0.290794951284549E+06
    -0.281600000000000E+02    -0.684000000000000E+01    -0.520744344547778E+05    -0.201532645535023E+06    -0.785461496856233E+03     0.181202390296066E+06     0.000000000000000E+00    -0.520703066606613E+05    -0.201536773329139E+06
    -0.329280000000000E+02    -0.684000000000000E+01    -0.524517851815766E+05    -0.199205872159619E+06     0.826237800365115E+02     0.178844866122153E+06     0.000000000000000E+00    -0.524517386637112E+05    -0.199205918677484E+06
    -0.376960000000000E+02    -0.684000000000000E+01    -0.519516765103910E+05    -0.199854289566584E+06    -0.560551153217271E+03     0.179607602852477E+06     0.000000000000000E+00    -0.519495520510894E+05    -0.199856414025885E+06
    -0.424640000000000E+02    -0.684000000000000E+01    -0.501673493644625E+05    -0.204928109248728E+06    -0.436739860734399E+04     0.185172393630966E+06     0.000000000000000E+00    -0.500441979639251E+05    -0.205051260649266E+06
    -0.472320000000000E+02    -0.684000000000000E+01    -0.466371220549466E+05    -0.216073357390687E+06    -0.135710382368316E+05     0.198338590855830E+06     0.000000000000000E+00    -0.455570314663931E+05    -0.217153447979240E+06
    -0.520000000000000E+02    -0.684000000000000E+01    -0.408443902809126E+05    -0.235131874868919E+06    -0.310587481385889E+05     0.224154817570295E+06     0.000000000000000E+00    -0.360001308157873E+05    -0.239976134334044E+06
    -0.352000000000000E+02    -0.380000000000000E+01    -0.426516457385876E+05    -0.133617751544346E+06     0.139375657998812E+03     0.118211284086768E+06     0.000000000000000E+00    -0.426514321917037E+05    -0.133617965091230E+06
    -0.385600000000000E+02    -0.380000000000000E+01    -0.424816815060635E+05    -0.136151486497414E+06    -0.263295518867539E+03     0.120657301588709E+06     0.000000000000000E+00    -0.424809414171679E+05    -0.136152226586310E+06
    -0.419200000000000E+02    -0.380000000000000E+01    -0.414670252269845E+05    -0.141657510585109E+06    -0.223888008929002E+04     0.126203354446242E+06     0.000000000000000E+00    -0.414170196453356E+05    -0.141707516166758E+06
    -0.452800000000000E+02    -0.380000000000000E+01    -0.393909131841130E+05    -0.150852468397950E+06    -0.656019643706246E+04     0.135996335644894E+06     0.000000000000000E+00    -0.390061336792585E+05    -0.151237247902805E+06
    -0.486400000000000E+02    -0.380000000000000E+01    -0.360184821052926E+05    -0.164512843637392E+06    -0.141593188149387E+05     0.151781958045399E+06     0.000000000000000E+00    -0.344767082840520E+05    -0.166054617458633E+06
    -0.520000000000000E+02    -0.380000000000000E+01    -0.310967691634488E+05    -0.183474959115829E+06    -0.261403421280223E+05     0.175995862689360E+06     0.000000000000000E+00    -0.267371479496153E+05    -0.187834580329663E+06
 zone I=    6 ,j=    6 ,f=point, T="    2"
    -0.352000000000000E+02    -0.380000000000000E+01    -0.426516457385876E+05    -0.133617751544346E+06     0.139375657998812E+03     0.118211284086768E+06     0.000000000000000E+00    -0.426514321917037E+05    -0.133617965091230E+06
    -0.385600000000000E+02    -0.380000000000000E+01    -0.424816815060635E+05    -0.136151486497414E+06    -0.263295518867539E+03     0.120657301588709E+06     0.000000000000000E+00    -0.424809414171679E+05    -0.136152226586310E+06
    -0.419200000000000E+02    -0.380000000000000E+01    -0.414670252269845E+05    -0.141657510585109E+06    -0.223888008929002E+04     0.126203354446242E+06     0.000000000000000E+00    -0.414170196453356E+05    -0.141707516166758E+06
    -0.452800000000000E+02    -0.380000000000000E+01    -0.393909131841130E+05    -0.150852468397950E+06    -0.656019643706246E+04     0.135996335644894E+06     0.000000000000000E+00    -0.390061336792585E+05    -0.151237247902805E+06
    -0.486400000000000E+02    -0.380000000000000E+01    -0.360184821052926E+05    -0.164512843637392E+06    -0.141593188149387E+05     0.151781958045399E+06     0.000000000000000E+00    -0.344767082840520E+05    -0.166054617458633E+06
    -0.520000000000000E+02    -0.380000000000000E+01    -0.310967691634488E+05    -0.183474959115829E+06    -0.261403421280223E+05     0.175995862689360E+06     0.000000000000000E+00    -0.267371479496153E+05    -0.187834580329663E+06
    -0.369600000000000E+02    -0.304000000000000E+01    -0.402653776546100E+05    -0.118302856223072E+06     0.105338354569998E+03     0.104179607089252E+06     0.000000000000000E+00    -0.402652354646146E+05    -0.118302998413067E+06
    -0.404880000000000E+02    -0.304000000000000E+01    -0.397794116816048E+05    -0.122964418210991E+06    -0.928676894322007E+03     0.108691236297229E+06     0.000000000000000E+00    -0.397690452304051E+05    -0.122974784662191E+06
    -0.440160000000000E+02    -0.304000000000000E+01    -0.381778505907342E+05    -0.131543710365991E+06    -0.411043121722820E+04     0.117430519144093E+06     0.000000000000000E+00    -0.379972382767237E+05    -0.131724322680002E+06
    -0.475440000000000E+02    -0.304000000000000E+01    -0.351806396296234E+05    -0.144953849079667E+06    -0.104384801819008E+05     0.132199138597366E+06     0.000000000000000E+00    -0.341968474816255E+05    -0.145937641227665E+06
    -0.510720000000000E+02    -0.304000000000000E+01    -0.304843397524587E+05    -0.164184195054641E+06    -0.211146346853657E+05     0.155621918396938E+06     0.000000000000000E+00    -0.272290562930156E+05    -0.167439478514084E+06
    -0.546000000000000E+02    -0.304000000000000E+01    -0.237621276199878E+05    -0.190300353304561E+06    -0.375602524116120E+05     0.191021568361245E+06     0.000000000000000E+00    -0.156829087053919E+05    -0.198379572219157E+06
    -0.387200000000000E+02    -0.228000000000000E+01    -0.378381703399406E+05    -0.103999137008763E+06    -0.113842843939322E+03     0.911726354367181E+05     0.000000000000000E+00    -0.378379744517093E+05    -0.103999332896994E+06
    -0.424160000000000E+02    -0.228000000000000E+01    -0.369174391309039E+05    -0.111398269797464E+06    -0.200059035097023E+04     0.983460221187101E+05     0.000000000000000E+00    -0.368637410419882E+05    -0.111451967886379E+06
    -0.461120000000000E+02    -0.228000000000000E+01    -0.345460145468312E+05    -0.123872599264691E+06    -0.675013907573544E+04     0.111333896393390E+06     0.000000000000000E+00    -0.340388069983988E+05    -0.124379806813124E+06
    -0.498080000000000E+02    -0.228000000000000E+01    -0.303665979773404E+05    -0.142572617591214E+06    -0.156358418233687E+05     0.132864874391747E+06     0.000000000000000E+00    -0.282284946516915E+05    -0.144710720916863E+06
    -0.535040000000000E+02    -0.228000000000000E+01    -0.239920567332504E+05    -0.168744881911263E+06    -0.301875345685226E+05     0.166540622393620E+06     0.000000000000000E+00    -0.179488777485956E+05    -0.174788060895918E+06
    -0.572000000000000E+02    -0.228000000000000E+01    -0.150054240465804E+05    -0.203732014312535E+06    -0.522120942666655E+05     0.216455814205049E+06     0.000000000000000E+00    -0.152376447112201E+04    -0.217213673887994E+06
    -0.404800000000000E+02    -0.152000000000000E+01    -0.353524317483221E+05    -0.909136680600995E+05    -0.565867656619430E+03     0.793853314170312E+05     0.000000000000000E+00    -0.353466692235950E+05    -0.909194305848267E+05
    -0.443440000000000E+02    -0.152000000000000E+01    -0.338543789746414E+05    -0.101762261635146E+06    -0.356792286088831E+04     0.899709337440123E+05     0.000000000000000E+00    -0.336674327153851E+05    -0.101949207894402E+06
    -0.482080000000000E+02    -0.152000000000000E+01    -0.304958141518268E+05    -0.119088101098142E+06    -0.103107448494559E+05     0.108624197503194E+06     0.000000000000000E+00    -0.293116345616514E+05    -0.120272280688318E+06
    -0.520720000000000E+02    -0.152000000000000E+01    -0.248260572337596E+05    -0.144326036483959E+06    -0.223990320747828E+05     0.139170547877531E+06     0.000000000000000E+00    -0.207655626255715E+05    -0.148386531092147E+06
    -0.559360000000000E+02    -0.152000000000000E+01    -0.163567968384622E+05    -0.179030726379087E+06    -0.417578034260141E+05     0.186070736582381E+06     0.000000000000000E+00    -0.626391973527752E+04    -0.189123603482271E+06
    -0.598000000000000E+02    -0.152000000000000E+01    -0.456209024809819E+04    -0.224876637921634E+06    -0.706580727677968E+05     0.254051367198171E+06     0.161515197144265E+05     0.000000000000000E+00    -0.245590247884158E+06
    -0.422400000000000E+02    -0.759999999999998E+00    -0.327886133478958E+05    -0.792745898299086E+05    -0.130344600892510E+04     0.690314913516049E+05     0.000000000000000E+00    -0.327520939938145E+05    -0.793111091839899E+05
    -0.462720000000000E+02    -0.759999999999998E+00    -0.305443146088265E+05    -0.943966465393065E+05    -0.572873681054852E+04     0.840170008939177E+05     0.000000000000000E+00    -0.300344127068822E+05    -0.949065484412507E+05
    -0.503040000000000E+02    -0.759999999999998E+00    -0.259433761906152E+05    -0.117678243192646E+06    -0.149605419176007E+05     0.110180353057533E+06     0.000000000000000E+00    -0.235651956895437E+05    -0.120056423693717E+06
    -0.543360000000000E+02    -0.759999999999998E+00    -0.184231976509820E+05    -0.150892222127428E+06    -0.309996594075635E+05     0.152351226867871E+06     0.000000000000000E+00    -0.115277605194683E+05    -0.157787659258942E+06
    -0.583680000000000E+02    -0.759999999999998E+00    -0.737420196996156E+04    -0.195959456254069E+06    -0.562431669217689E+05     0.215637019590590E+06     0.812567226553928E+04     0.000000000000000E+00    -0.211459330489570E+06
    -0.624000000000000E+02    -0.759999999999998E+00     0.786016445009686E+04    -0.254948849055895E+06    -0.935161845312043E+05     0.305451253079560E+06     0.377393244593382E+05     0.000000000000000E+00    -0.284828009065137E+06
    -0.440000000000000E+02     0.000000000000000E+00    -0.301251432505211E+05    -0.693320427345426E+05    -0.238450902237539E+04     0.603562452130091E+05     0.000000000000000E+00    -0.299806532249173E+05    -0.694765327601464E+05
    -0.482000000000000E+02     0.000000000000000E+00    -0.269366143029058E+05    -0.896740897048789E+05    -0.859066266415779E+04     0.810734583090283E+05     0.000000000000000E+00    -0.257815577916137E+05    -0.908291462161710E+05
    -0.524000000000000E+02     0.000000000000000E+00    -0.207963074984757E+05    -0.120177122465649E+06    -0.208840490618697E+05     0.116979559292523E+06     0.000000000000000E+00    -0.165860646974557E+05    -0.124387365266669E+06
    -0.566000000000000E+02     0.000000000000000E+00    -0.110085347993186E+05    -0.163012862729781E+06    -0.417352751309761E+05     0.173566552228428E+06     0.000000000000000E+00    -0.303362756250193E+03    -0.173718034772849E+06
    -0.608000000000000E+02     0.000000000000000E+00     0.318048109210449E+04    -0.220534368814463E+06    -0.741009581292270E+05     0.256553668197422E+06     0.254984470003679E+05     0.000000000000000E+00    -0.242852334722727E+06
    -0.650000000000000E+02     0.000000000000000E+00     0.225826067329594E+05    -0.295276035641146E+06    -0.121462680684093E+06     0.372324538995559E+06     0.636825632328074E+05     0.000000000000000E+00    -0.336375992140994E+06
 zone I=    6 ,j=    6 ,f=point, T="    2"
    -0.520000000000000E+02    -0.380000000000000E+01    -0.310967691634488E+05    -0.183474959115829E+06    -0.261403421280223E+05     0.175995862689360E+06     0.000000000000000E+00    -0.267371479496153E+05    -0.187834580329663E+06
    -0.520000000000000E+02    -0.684000000000000E+01    -0.408443902809126E+05    -0.235131874868919E+06    -0.310587481385889E+05     0.224154817570295E+06     0.000000000000000E+00    -0.360001308157873E+05    -0.239976134334044E+06
    -0.520000000000000E+02    -0.988000000000000E+01    -0.519551986576616E+05    -0.285640322285973E+06    -0.350874666355850E+05     0.270448937211621E+06     0.000000000000000E+00    -0.468005696590855E+05    -0.290794951284549E+06
    -0.520000000000000E+02    -0.129200000000000E+02    -0.639757701618381E+05    -0.335359313439949E+06    -0.379277233498946E+05     0.315308475173070E+06     0.000000000000000E+00    -0.587747843963636E+05    -0.340560299205423E+06
    -0.520000000000000E+02    -0.159600000000000E+02    -0.764554858120948E+05    -0.384661886156362E+06    -0.393984641735738E+05     0.359245617273700E+06     0.000000000000000E+00    -0.714988378687186E+05    -0.389618534099739E+06
    -0.520000000000000E+02    -0.190000000000000E+02    -0.889451553572491E+05    -0.433928221911562E+06    -0.394363551598501E+05     0.402833473839895E+06     0.000000000000000E+00    -0.844944518434172E+05    -0.438378925425394E+06
    -0.546000000000000E+02    -0.304000000000000E+01    -0.237621276199878E+05    -0.190300353304561E+06    -0.375602524116120E+05     0.191021568361245E+06     0.000000000000000E+00    -0.156829087053919E+05    -0.198379572219157E+06
    -0.546000000000000E+02    -0.623200000000000E+01    -0.342829422195054E+05    -0.240249251887703E+06    -0.442068850168911E+05     0.237742124975300E+06     0.000000000000000E+00    -0.251956778410368E+05    -0.249336516266172E+06
    -0.546000000000000E+02    -0.942400000000000E+01    -0.467756066458227E+05    -0.288695393995147E+06    -0.496081777328506E+05     0.281801347752353E+06     0.000000000000000E+00    -0.369981025501466E+05    -0.298472898090824E+06
    -0.546000000000000E+02    -0.126160000000000E+02    -0.605950078100234E+05    -0.336103603189456E+06    -0.533759278895012E+05     0.323756321362820E+06     0.000000000000000E+00    -0.506156390250590E+05    -0.346082971974421E+06
    -0.546000000000000E+02    -0.158080000000000E+02    -0.750996932582983E+05    -0.382957006208740E+06    -0.552721768880917E+05     0.364281648519801E+06     0.000000000000000E+00    -0.654769974853184E+05    -0.392579701981720E+06
    -0.546000000000000E+02    -0.190000000000000E+02    -0.896501144720363E+05    -0.429748249467106E+06    -0.552092102011091E+05     0.404150828106412E+06     0.000000000000000E+00    -0.809123193431147E+05    -0.438486044596028E+06
    -0.572000000000000E+02    -0.228000000000000E+01    -0.150054240465804E+05    -0.203732014312535E+06    -0.522120942666655E+05     0.216455814205049E+06     0.000000000000000E+00    -0.152376447112201E+04    -0.217213673887994E+06
    -0.572000000000000E+02    -0.562400000000000E+01    -0.264020649111468E+05    -0.250750439642830E+06    -0.610252644430721E+05     0.261007224669619E+06     0.000000000000000E+00    -0.108768740031150E+05    -0.266275630550862E+06
    -0.572000000000000E+02    -0.896800000000000E+01    -0.405485956282800E+05    -0.295829796531546E+06    -0.681482938883358E+05     0.301822040627653E+06     0.000000000000000E+00    -0.234953370410982E+05    -0.312883055118728E+06
    -0.572000000000000E+02    -0.123120000000000E+02    -0.565583055284446E+05    -0.339563803744562E+06    -0.730834232642541E+05     0.339589201311239E+06     0.000000000000000E+00    -0.387995879813192E+05    -0.357322521291688E+06
    -0.572000000000000E+02    -0.156560000000000E+02    -0.735491955280756E+05    -0.382569737977623E+06    -0.755224827293930E+05     0.375156405130297E+06     0.000000000000000E+00    -0.560796152830780E+05    -0.400039318222621E+06
    -0.572000000000000E+02    -0.190000000000000E+02    -0.906417613908474E+05    -0.425477350162683E+06    -0.753468919390874E+05     0.409526983645131E+06     0.000000000000000E+00    -0.744679655501811E+05    -0.441651146003350E+06
    -0.598000000000000E+02    -0.152000000000000E+01    -0.456209024809819E+04    -0.224876637921634E+06    -0.706580727677968E+05     0.254051367198171E+06     0.161515197144265E+05     0.000000000000000E+00    -0.245590247884158E+06
    -0.598000000000000E+02    -0.501600000000000E+01    -0.169535783003578E+05    -0.267543478542315E+06    -0.821511287773694E+05     0.295935028838560E+06     0.757681150891181E+04     0.000000000000000E+00    -0.292073868351585E+06
    -0.598000000000000E+02    -0.851200000000000E+01    -0.330725987694479E+05    -0.307739590787336E+06    -0.914056750381667E+05     0.332693097017788E+06     0.000000000000000E+00    -0.543492591782534E+04    -0.335377263638959E+06
    -0.598000000000000E+02    -0.120080000000000E+02    -0.517325621549730E+05    -0.346214195630596E+06    -0.977910595049043E+05     0.365129091974524E+06     0.000000000000000E+00    -0.222166267368640E+05    -0.375730131048705E+06
    -0.598000000000000E+02    -0.155040000000000E+02    -0.717528684978166E+05    -0.383746461752405E+06    -0.100913407424585E+06     0.394240356930455E+06     0.000000000000000E+00    -0.419580712463305E+05    -0.413541259003891E+06
    -0.598000000000000E+02    -0.190000000000000E+02    -0.919561389071855E+05    -0.421131663174705E+06    -0.100615621336497E+06     0.421251323160760E+06     0.000000000000000E+00    -0.636381346649025E+05    -0.449449667416988E+06
    -0.624000000000000E+02    -0.759999999999998E+00     0.786016445009686E+04    -0.254948849055895E+06    -0.935161845312043E+05     0.305451253079560E+06     0.377393244593382E+05     0.000000000000000E+00    -0.284828009065137E+06
    -0.624000000000000E+02    -0.440800000000000E+01    -0.566275450306548E+04    -0.291624915558816E+06    -0.108285251625383E+06     0.344387637725542E+06     0.307141453002708E+05     0.000000000000000E+00    -0.328001815362152E+06
    -0.624000000000000E+02    -0.805600000000000E+01    -0.241238641551712E+05    -0.325188571245385E+06    -0.120148068670236E+06     0.376552038884955E+06     0.179458276393722E+05     0.000000000000000E+00    -0.367258263039928E+06
    -0.624000000000000E+02    -0.117040000000000E+02    -0.459692052718707E+05    -0.356575005977837E+06    -0.128314224172979E+06     0.402816401667247E+06     0.181439846955094E+03     0.000000000000000E+00    -0.402725651096663E+06
    -0.624000000000000E+02    -0.153520000000000E+02    -0.696523478660496E+05    -0.386757055854608E+06    -0.132286232072278E+06     0.424255671040689E+06     0.000000000000000E+00    -0.217137912782697E+05    -0.434695612442388E+06
    -0.624000000000000E+02    -0.190000000000000E+02    -0.936309662235540E+05    -0.416728078338950E+06    -0.131859531738244E+06     0.442234332470192E+06     0.000000000000000E+00    -0.466492557141273E+05    -0.463709788848377E+06
    -0.650000000000000E+02     0.000000000000000E+00     0.225826067329594E+05    -0.295276035641146E+06    -0.121462680684093E+06     0.372324538995559E+06     0.636825632328074E+05     0.000000000000000E+00    -0.336375992140994E+06
    -0.650000000000000E+02    -0.380000000000000E+01     0.777291218677961E+04    -0.324083768614245E+06    -0.140194762581358E+06     0.408134164562836E+06     0.590697673859297E+05     0.000000000000000E+00    -0.375380623813395E+06
    -0.650000000000000E+02    -0.760000000000000E+01    -0.134553999271161E+05    -0.349011296746866E+06    -0.155216236548184E+06     0.435396470738868E+06     0.473306909623010E+05     0.000000000000000E+00    -0.409797387636283E+06
    -0.650000000000000E+02    -0.114000000000000E+02    -0.391034249800612E+05    -0.371214456662355E+06    -0.165546195821530E+06     0.455005629498833E+06     0.293191547277145E+05     0.000000000000000E+00    -0.439637036370131E+06
    -0.650000000000000E+02    -0.152000000000000E+02    -0.671816271563022E+05    -0.391895929048651E+06    -0.170562987059901E+06     0.468020065496387E+06     0.594280720336997E+04     0.000000000000000E+00    -0.465020363408324E+06
    -0.650000000000000E+02    -0.190000000000000E+02    -0.957056389514563E+05    -0.412284236150568E+06    -0.170004210343346E+06     0.475798517293145E+06     0.000000000000000E+00    -0.217086194313173E+05    -0.486281255670707E+06
 zone I=    6 ,j=    6 ,f=point, T="    2"
     0.000000000000000E+00    -0.190000000000000E+02    -0.943891116079664E+05    -0.480225787236655E+06     0.684264689952710E-10     0.440679050657848E+06     0.000000000000000E+00    -0.943891116079664E+05    -0.480225787236655E+06
     0.000000000000000E+00    -0.220400000000000E+02    -0.106106021970765E+06    -0.544803964124379E+06    -0.304396527764313E-11     0.500262796774812E+06     0.000000000000000E+00    -0.106106021970765E+06    -0.544803964124379E+06
     0.000000000000000E+00    -0.250800000000000E+02    -0.118908657241815E+06    -0.609195266608982E+06    -0.607754223367892E-10     0.559302735980521E+06     0.000000000000000E+00    -0.118908657241815E+06    -0.609195266608982E+06
     0.000000000000000E+00    -0.281200000000000E+02    -0.133350672006272E+06    -0.673313475515960E+06    -0.766343009556468E-10     0.617532698409545E+06     0.000000000000000E+00    -0.133350672006272E+06    -0.673313475515960E+06
     0.000000000000000E+00    -0.311600000000000E+02    -0.149981643898075E+06    -0.737051986914721E+06    -0.405307000508073E-10     0.674682040879625E+06     0.000000000000000E+00    -0.149981643898075E+06    -0.737051986914721E+06
     0.000000000000000E+00    -0.342000000000000E+02    -0.169345697179596E+06    -0.800276930016854E+06     0.299520680450969E-10     0.730477703437958E+06     0.000000000000000E+00    -0.169345697179596E+06    -0.800276930016854E+06
    -0.104000000000000E+02    -0.190000000000000E+02    -0.937421926538999E+05    -0.478181715825442E+06    -0.253221245000687E+04     0.438906351975589E+06     0.000000000000000E+00    -0.937255142914066E+05    -0.478198394187936E+06
    -0.104000000000000E+02    -0.220400000000000E+02    -0.105054356881911E+06    -0.543221231581743E+06    -0.301030716628182E+04     0.499084314580557E+06     0.000000000000000E+00    -0.105033676355668E+06    -0.543241912107986E+06
    -0.104000000000000E+02    -0.250800000000000E+02    -0.117373231177910E+06    -0.608110069052529E+06    -0.373597312010000E+04     0.558784717265209E+06     0.000000000000000E+00    -0.117344790911706E+06    -0.608138509318733E+06
    -0.104000000000000E+02    -0.281200000000000E+02    -0.131212197440335E+06    -0.672779870623016E+06    -0.476717561881003E+04     0.617770708066282E+06     0.000000000000000E+00    -0.131170237397555E+06    -0.672821830665797E+06
    -0.104000000000000E+02    -0.311600000000000E+02    -0.147080560616407E+06    -0.737141893922330E+06    -0.618542400199491E+04     0.675800561175376E+06     0.000000000000000E+00    -0.147015727920810E+06    -0.737206726617927E+06
    -0.104000000000000E+02    -0.342000000000000E+02    -0.165482172281784E+06    -0.801080129721777E+06    -0.809577164147204E+04     0.732629420713798E+06     0.000000000000000E+00    -0.165379071118771E+06    -0.801183230884790E+06
    -0.208000000000000E+02    -0.190000000000000E+02    -0.920160161437198E+05    -0.472145585990911E+06    -0.259539893935782E+04     0.433547752873775E+06     0.000000000000000E+00    -0.919982964444357E+05    -0.472163305690195E+06
    -0.208000000000000E+02    -0.220400000000000E+02    -0.102322986537481E+06    -0.538039096217287E+06    -0.336503606100257E+04     0.494910361415540E+06     0.000000000000000E+00    -0.102296999909639E+06    -0.538065082845129E+06
    -0.208000000000000E+02    -0.250800000000000E+02    -0.113399622478437E+06    -0.603890516510969E+06    -0.450760498597640E+04     0.555988515373846E+06     0.000000000000000E+00    -0.113358201144769E+06    -0.603931937844637E+06
    -0.208000000000000E+02    -0.281200000000000E+02    -0.125638487804876E+06    -0.669685073936328E+06    -0.613903632897655E+04     0.616634390199971E+06     0.000000000000000E+00    -0.125569223571858E+06    -0.669754338169346E+06
    -0.208000000000000E+02    -0.311600000000000E+02    -0.139428069403869E+06    -0.735387610801645E+06    -0.842234876916905E+04     0.676693621735134E+06     0.000000000000000E+00    -0.139309065022162E+06    -0.735506615183352E+06
    -0.208000000000000E+02    -0.342000000000000E+02    -0.155151400790924E+06    -0.800935702557380E+06    -0.115676490501887E+05     0.736006176683916E+06     0.000000000000000E+00    -0.154944261042703E+06    -0.801142842305602E+06
    -0.312000000000000E+02    -0.190000000000000E+02    -0.898543231334824E+05    -0.462405650930372E+06    -0.134700075134599E+04     0.424675266355064E+06     0.000000000000000E+00    -0.898494529661518E+05    -0.462410521097703E+06
    -0.312000000000000E+02    -0.220400000000000E+02    -0.991827857038649E+05    -0.527955744821361E+06    -0.203507565655040E+04     0.486027567704651E+06     0.000000000000000E+00    -0.991731268866585E+05    -0.527965403638567E+06
    -0.312000000000000E+02    -0.250800000000000E+02    -0.108885839620120E+06    -0.593644729367690E+06    -0.297702158735490E+04     0.547409603455357E+06     0.000000000000000E+00    -0.108867557699994E+06    -0.593663011287816E+06
    -0.312000000000000E+02    -0.281200000000000E+02    -0.119154685286954E+06    -0.659547139432321E+06    -0.434673446580539E+04     0.608825770339734E+06     0.000000000000000E+00    -0.119119723884233E+06    -0.659582100835042E+06
    -0.312000000000000E+02    -0.311600000000000E+02    -0.130176446157853E+06    -0.725717125122129E+06    -0.638874231065091E+04     0.670270411588084E+06     0.000000000000000E+00    -0.130107917955433E+06    -0.725785653324549E+06
    -0.312000000000000E+02    -0.342000000000000E+02    -0.142132792314742E+06    -0.792181569686165E+06    -0.941820523734359E+04     0.731727066091948E+06     0.000000000000000E+00    -0.141996365663776E+06    -0.792317996337132E+06
    -0.416000000000000E+02    -0.190000000000000E+02    -0.883300153832817E+05    -0.449442332639347E+06    -0.719739365716336E+04     0.412621813839677E+06     0.000000000000000E+00    -0.881866197950201E+05    -0.449585728227609E+06
    -0.416000000000000E+02    -0.220400000000000E+02    -0.977518789917133E+05    -0.510801488711214E+06    -0.724424941321219E+04     0.469786358732775E+06     0.000000000000000E+00    -0.976248651517029E+05    -0.510928502551224E+06
    -0.416000000000000E+02    -0.250800000000000E+02    -0.106995230064168E+06    -0.572552908261668E+06    -0.705928340185991E+04     0.527402960096411E+06     0.000000000000000E+00    -0.106888214259041E+06    -0.572659924066795E+06
    -0.416000000000000E+02    -0.281200000000000E+02    -0.115969360198333E+06    -0.634896157071703E+06    -0.687435685250105E+04     0.585709221361289E+06     0.000000000000000E+00    -0.115878309799230E+06    -0.634987207470805E+06
    -0.416000000000000E+02    -0.311600000000000E+02    -0.124579484040680E+06    -0.698010416166219E+06    -0.701550712346767E+04     0.644925161115590E+06     0.000000000000000E+00    -0.124493667296363E+06    -0.698096232910536E+06
    -0.416000000000000E+02    -0.342000000000000E+02    -0.132725362866116E+06    -0.762047599712298E+06    -0.790294770202931E+04     0.705249524444570E+06     0.000000000000000E+00    -0.132626134311301E+06    -0.762146828267112E+06
    -0.520000000000000E+02    -0.190000000000000E+02    -0.889451553572491E+05    -0.433928221911562E+06    -0.394363551598501E+05     0.402833473839895E+06     0.000000000000000E+00    -0.844944518434172E+05    -0.438378925425394E+06
    -0.520000000000000E+02    -0.220400000000000E+02    -0.100995640855937E+06    -0.483538763730993E+06    -0.380957825231230E+05     0.446686035285240E+06     0.000000000000000E+00    -0.972387457523771E+05    -0.487295658834553E+06
    -0.520000000000000E+02    -0.250800000000000E+02    -0.112156480256269E+06    -0.533867334087475E+06    -0.355488526389640E+05     0.491434520690126E+06     0.000000000000000E+00    -0.109180824343141E+06    -0.536842990000603E+06
    -0.520000000000000E+02    -0.281200000000000E+02    -0.121974510975483E+06    -0.585274252799463E+06    -0.320853920441162E+05     0.537702156117860E+06     0.000000000000000E+00    -0.119763023223486E+06    -0.587485740551461E+06
    -0.520000000000000E+02    -0.311600000000000E+02    -0.129992493479599E+06    -0.638099454929326E+06    -0.281129474364947E+05     0.586081766435888E+06     0.000000000000000E+00    -0.128441770635770E+06    -0.639650177773155E+06
    -0.520000000000000E+02    -0.342000000000000E+02    -0.135747734863075E+06    -0.692655608681610E+06    -0.241567856751864E+05     0.637121229219593E+06     0.000000000000000E+00    -0.134701859116900E+06    -0.693701484427784E+06
 zone I=    6 ,j=    6 ,f=point, T="    2"
    -0.520000000000000E+02    -0.190000000000000E+02    -0.889451553572491E+05    -0.433928221911562E+06    -0.394363551598501E+05     0.402833473839895E+06     0.000000000000000E+00    -0.844944518434172E+05    -0.438378925425394E+06
    -0.520000000000000E+02    -0.220400000000000E+02    -0.100995640855937E+06    -0.483538763730993E+06    -0.380957825231230E+05     0.446686035285240E+06     0.000000000000000E+00    -0.972387457523771E+05    -0.487295658834553E+06
    -0.520000000000000E+02    -0.250800000000000E+02    -0.112156480256269E+06    -0.533867334087475E+06    -0.355488526389640E+05     0.491434520690126E+06     0.000000000000000E+00    -0.109180824343141E+06    -0.536842990000603E+06
    -0.520000000000000E+02    -0.281200000000000E+02    -0.121974510975483E+06    -0.585274252799463E+06    -0.320853920441162E+05     0.537702156117860E+06     0.000000000000000E+00    -0.119763023223486E+06    -0.587485740551461E+06
    -0.520000000000000E+02    -0.311600000000000E+02    -0.129992493479599E+06    -0.638099454929326E+06    -0.281129474364947E+05     0.586081766435888E+06     0.000000000000000E+00    -0.128441770635770E+06    -0.639650177773155E+06
    -0.520000000000000E+02    -0.342000000000000E+02    -0.135747734863075E+06    -0.692655608681610E+06    -0.241567856751864E+05     0.637121229219593E+06     0.000000000000000E+00    -0.134701859116900E+06    -0.693701484427784E+06
    -0.546000000000000E+02    -0.190000000000000E+02    -0.896501144720363E+05    -0.429748249467106E+06    -0.552092102011091E+05     0.404150828106412E+06     0.000000000000000E+00    -0.809123193431147E+05    -0.438486044596028E+06
    -0.546000000000000E+02    -0.221920000000000E+02    -0.103606870167915E+06    -0.476970715555113E+06    -0.532495573722784E+05     0.444212280473832E+06     0.000000000000000E+00    -0.961608566418072E+05    -0.484416729081221E+06
    -0.546000000000000E+02    -0.253840000000000E+02    -0.116328949597990E+06    -0.525109739740218E+06    -0.496059920165629E+05     0.485354985725705E+06     0.000000000000000E+00    -0.110395337382078E+06    -0.531043351956131E+06
    -0.546000000000000E+02    -0.285760000000000E+02    -0.127171975849790E+06    -0.574633826467228E+06    -0.446415318201639E+05     0.528467620531001E+06     0.000000000000000E+00    -0.122761731478975E+06    -0.579044070838044E+06
    -0.546000000000000E+02    -0.317680000000000E+02    -0.135486449146402E+06    -0.625985865858754E+06    -0.388694385405209E+05     0.574399494893199E+06     0.000000000000000E+00    -0.132425358902830E+06    -0.629046956102326E+06
    -0.546000000000000E+02    -0.349600000000000E+02    -0.140615990146566E+06    -0.679574350215656E+06    -0.329532180063118E+05     0.623933392080486E+06     0.000000000000000E+00    -0.138608627146171E+06    -0.681581713216051E+06
    -0.572000000000000E+02    -0.190000000000000E+02    -0.906417613908474E+05    -0.425477350162683E+06    -0.753468919390874E+05     0.409526983645131E+06     0.000000000000000E+00    -0.744679655501811E+05    -0.441651146003350E+06
    -0.572000000000000E+02    -0.223440000000000E+02    -0.106956776988943E+06    -0.468917781774250E+06    -0.726276600454411E+05     0.443840100269901E+06     0.000000000000000E+00    -0.929277430763858E+05    -0.482946815686807E+06
    -0.572000000000000E+02    -0.256880000000000E+02    -0.121613077564325E+06    -0.513512481135723E+06    -0.676253856973267E+05     0.479327188974672E+06     0.000000000000000E+00    -0.110271972943622E+06    -0.524853585756426E+06
    -0.572000000000000E+02    -0.290320000000000E+02    -0.133725342990002E+06    -0.559862119725740E+06    -0.607902570403856E+05     0.517249139706648E+06     0.000000000000000E+00    -0.125222989894298E+06    -0.568364472821444E+06
    -0.572000000000000E+02    -0.323760000000000E+02    -0.142401881031299E+06    -0.608535508484521E+06    -0.527620517170284E+05     0.558827935977975E+06     0.000000000000000E+00    -0.136504317157262E+06    -0.614433072358558E+06
    -0.572000000000000E+02    -0.357200000000000E+02    -0.146742410607129E+06    -0.660058514120205E+06    -0.443701368664342E+05     0.605192636080648E+06     0.000000000000000E+00    -0.142935369545056E+06    -0.663865555182278E+06
    -0.598000000000000E+02    -0.190000000000000E+02    -0.919561389071855E+05    -0.421131663174705E+06    -0.100615621336497E+06     0.421251323160760E+06     0.000000000000000E+00    -0.636381346649025E+05    -0.449449667416988E+06
    -0.598000000000000E+02    -0.224960000000000E+02    -0.111165447087655E+06    -0.459167336896290E+06    -0.969773810722162E+05     0.447618917074985E+06     0.000000000000000E+00    -0.859656358005836E+05    -0.484367148183361E+06
    -0.598000000000000E+02    -0.259920000000000E+02    -0.128201550866214E+06    -0.498639440528026E+06    -0.903151437556051E+05     0.474995847635153E+06     0.000000000000000E+00    -0.107355256717156E+06    -0.519485734677084E+06
    -0.598000000000000E+02    -0.294880000000000E+02    -0.141880123719310E+06    -0.540308509928069E+06    -0.811821438028123E+05     0.505149323061378E+06     0.000000000000000E+00    -0.125973803606913E+06    -0.556214830040467E+06
    -0.598000000000000E+02    -0.329840000000000E+02    -0.151008986299894E+06    -0.584895816837091E+06    -0.703683929222734E+05     0.539849458898147E+06     0.000000000000000E+00    -0.139881894595612E+06    -0.596022908541373E+06
    -0.598000000000000E+02    -0.364800000000000E+02    -0.154385337964465E+06    -0.633069526513492E+06    -0.589006801147106E+05     0.580760773061125E+06     0.000000000000000E+00    -0.147244312716189E+06    -0.640210551761767E+06
    -0.624000000000000E+02    -0.190000000000000E+02    -0.936309662235540E+05    -0.416728078338950E+06    -0.131859531738244E+06     0.442234332470192E+06     0.000000000000000E+00    -0.466492557141273E+05    -0.463709788848377E+06
    -0.624000000000000E+02    -0.226480000000000E+02    -0.116363413928917E+06    -0.447484827387562E+06    -0.127122487972434E+06     0.458467701688968E+06     0.000000000000000E+00    -0.731887030573578E+05    -0.490659538259121E+06
    -0.624000000000000E+02    -0.262960000000000E+02    -0.136305298891083E+06    -0.480010328579207E+06    -0.118456391007854E+06     0.475033523503897E+06     0.000000000000000E+00    -0.994350228644921E+05    -0.516880604605798E+06
    -0.624000000000000E+02    -0.299440000000000E+02    -0.151906058369135E+06    -0.515256754243339E+06    -0.106535456508957E+06     0.494311401100727E+06     0.000000000000000E+00    -0.122973392352259E+06    -0.544189420260215E+06
    -0.624000000000000E+02    -0.335920000000000E+02    -0.161605533998020E+06    -0.554128298588725E+06    -0.923268255716420E+05     0.518842026515956E+06     0.000000000000000E+00    -0.140973456501200E+06    -0.574760376085546E+06
    -0.624000000000000E+02    -0.372400000000000E+02    -0.163830546814275E+06    -0.597464052832067E+06    -0.770905647232562E+05     0.551134961263287E+06     0.000000000000000E+00    -0.150533285572254E+06    -0.610761314074088E+06
    -0.650000000000000E+02    -0.190000000000000E+02    -0.957056389514563E+05    -0.412284236150568E+06    -0.170004210343346E+06     0.475798517293145E+06     0.000000000000000E+00    -0.217086194313173E+05    -0.486281255670707E+06
    -0.650000000000000E+02    -0.228000000000000E+02    -0.122692060670969E+06    -0.433612739262070E+06    -0.163966719173461E+06     0.480133068928108E+06     0.000000000000000E+00    -0.522032860262423E+05    -0.504101513906797E+06
    -0.650000000000000E+02    -0.266000000000000E+02    -0.146154259928569E+06    -0.457098636218553E+06    -0.152906620473383E+06     0.483357654114448E+06     0.000000000000000E+00    -0.835621550974225E+05    -0.519690741049699E+06
    -0.650000000000000E+02    -0.304000000000000E+02    -0.164098171144729E+06    -0.483921958889123E+06    -0.137639274587798E+06     0.488397044795335E+06     0.000000000000000E+00    -0.113021004374322E+06    -0.534999125659529E+06
    -0.650000000000000E+02    -0.342000000000000E+02    -0.174518095045119E+06    -0.515204570668873E+06    -0.119339295282934E+06     0.498703716750223E+06     0.000000000000000E+00    -0.136874107126998E+06    -0.552848558586994E+06
    -0.650000000000000E+02    -0.380000000000000E+02    -0.175392498159069E+06    -0.551989163971165E+06    -0.995405497465666E+05     0.518039352036090E+06     0.000000000000000E+00    -0.150701199347877E+06    -0.576680462782357E+06
 zone I=    6 ,j=    6 ,f=point, T="    2"
    -0.520000000000000E+02    -0.342000000000000E+02    -0.135747734863075E+06    -0.692655608681610E+06    -0.241567856751864E+05     0.637121229219593E+06     0.000000000000000E+00    -0.134701859116900E+06    -0.693701484427784E+06
    -0.416000000000000E+02    -0.342000000000000E+02    -0.132725362866116E+06    -0.762047599712298E+06    -0.790294770202931E+04     0.705249524444570E+06     0.000000000000000E+00    -0.132626134311301E+06    -0.762146828267112E+06
    -0.312000000000000E+02    -0.342000000000000E+02    -0.142132792314742E+06    -0.792181569686165E+06    -0.941820523734359E+04     0.731727066091948E+06     0.000000000000000E+00    -0.141996365663776E+06    -0.792317996337132E+06
    -0.208000000000000E+02    -0.342000000000000E+02    -0.155151400790924E+06    -0.800935702557380E+06    -0.115676490501887E+05     0.736006176683916E+06     0.000000000000000E+00    -0.154944261042703E+06    -0.801142842305602E+06
    -0.104000000000000E+02    -0.342000000000000E+02    -0.165482172281784E+06    -0.801080129721777E+06    -0.809577164147204E+04     0.732629420713798E+06     0.000000000000000E+00    -0.165379071118771E+06    -0.801183230884790E+06
     0.000000000000000E+00    -0.342000000000000E+02    -0.169345697179596E+06    -0.800276930016854E+06     0.299520680450969E-10     0.730477703437958E+06     0.000000000000000E+00    -0.169345697179596E+06    -0.800276930016854E+06
    -0.546000000000000E+02    -0.349600000000000E+02    -0.140615990146566E+06    -0.679574350215656E+06    -0.329532180063118E+05     0.623933392080486E+06     0.000000000000000E+00    -0.138608627146171E+06    -0.681581713216051E+06
    -0.436800000000000E+02    -0.349600000000000E+02    -0.133740044571660E+06    -0.767867807297582E+06    -0.915229733499826E+04     0.710678540461458E+06     0.000000000000000E+00    -0.133607977960102E+06    -0.767999873909140E+06
    -0.327600000000000E+02    -0.349600000000000E+02    -0.143277096079793E+06    -0.806062531515932E+06    -0.978439589568119E+04     0.745024855565055E+06     0.000000000000000E+00    -0.143132685017975E+06    -0.806206942577749E+06
    -0.218400000000000E+02    -0.349600000000000E+02    -0.158063387787835E+06    -0.817016996338068E+06    -0.125418823987418E+05     0.750887627401811E+06     0.000000000000000E+00    -0.157824764202126E+06    -0.817255619923777E+06
    -0.109200000000000E+02    -0.349600000000000E+02    -0.170124807636411E+06    -0.817058682812104E+06    -0.900230539594971E+04     0.746839015182143E+06     0.000000000000000E+00    -0.169999561735686E+06    -0.817183928712830E+06
     0.000000000000000E+00    -0.349600000000000E+02    -0.174676888389895E+06    -0.815984079566910E+06     0.474697181258080E-10     0.744183091349026E+06     0.000000000000000E+00    -0.174676888389895E+06    -0.815984079566910E+06
    -0.572000000000000E+02    -0.357200000000000E+02    -0.146742410607129E+06    -0.660058514120205E+06    -0.443701368664342E+05     0.605192636080648E+06     0.000000000000000E+00    -0.142935369545056E+06    -0.663865555182278E+06
    -0.457600000000000E+02    -0.357200000000000E+02    -0.134824537215226E+06    -0.771358178581927E+06    -0.108879336635264E+05     0.713812809736855E+06     0.000000000000000E+00    -0.134638353128094E+06    -0.771544362669060E+06
    -0.343200000000000E+02    -0.357200000000000E+02    -0.144198496966084E+06    -0.819402626863530E+06    -0.101644739446472E+05     0.757870169505347E+06     0.000000000000000E+00    -0.144045516374088E+06    -0.819555607455526E+06
    -0.228800000000000E+02    -0.357200000000000E+02    -0.160881727234615E+06    -0.833083327023150E+06    -0.135684556751045E+05     0.765790561647460E+06     0.000000000000000E+00    -0.160607958115448E+06    -0.833357096142317E+06
    -0.114400000000000E+02    -0.357200000000000E+02    -0.174886683288616E+06    -0.833037041959456E+06    -0.998996210336468E+04     0.761017987942390E+06     0.000000000000000E+00    -0.174735082125448E+06    -0.833188643122624E+06
     0.000000000000000E+00    -0.357200000000000E+02    -0.180220838288763E+06    -0.831645829411647E+06     0.626541973602926E-10     0.757782572770957E+06     0.000000000000000E+00    -0.180220838288763E+06    -0.831645829411647E+06
    -0.598000000000000E+02    -0.364800000000000E+02    -0.154385337964465E+06    -0.633069526513492E+06    -0.589006801147106E+05     0.580760773061125E+06     0.000000000000000E+00    -0.147244312716189E+06    -0.640210551761767E+06
    -0.478400000000000E+02    -0.364800000000000E+02    -0.136030089957078E+06    -0.772124944549975E+06    -0.132243653086685E+05     0.714264335675699E+06     0.000000000000000E+00    -0.135755275103049E+06    -0.772399759404004E+06
    -0.358800000000000E+02    -0.364800000000000E+02    -0.144878228736269E+06    -0.832098000417084E+06    -0.105690417024755E+05     0.770168171863766E+06     0.000000000000000E+00    -0.144715721430039E+06    -0.832260507723314E+06
    -0.239200000000000E+02    -0.364800000000000E+02    -0.163586422213336E+06    -0.849124562735769E+06    -0.146500381489412E+05     0.780712278752973E+06     0.000000000000000E+00    -0.163273491860262E+06    -0.849437493088844E+06
    -0.119600000000000E+02    -0.364800000000000E+02    -0.179766576039206E+06    -0.849015966235282E+06    -0.110650463699279E+05     0.775168849531546E+06     0.000000000000000E+00    -0.179583681885411E+06    -0.849198860389076E+06
     0.000000000000000E+00    -0.364800000000000E+02    -0.185985833604434E+06    -0.847259011753170E+06     0.740321201798871E-10     0.771271929813806E+06     0.000000000000000E+00    -0.185985833604434E+06    -0.847259011753170E+06
    -0.624000000000000E+02    -0.372400000000000E+02    -0.163830546814275E+06    -0.597464052832067E+06    -0.770905647232562E+05     0.551134961263287E+06     0.000000000000000E+00    -0.150533285572254E+06    -0.610761314074088E+06
    -0.499200000000000E+02    -0.372400000000000E+02    -0.137414762539482E+06    -0.769733289954976E+06    -0.162894909021910E+05     0.711614699055854E+06     0.000000000000000E+00    -0.136995398506699E+06    -0.770152653987759E+06
    -0.374400000000000E+02    -0.372400000000000E+02    -0.145296644801450E+06    -0.844033034982826E+06    -0.110103950549678E+05     0.781812891583459E+06     0.000000000000000E+00    -0.145123190671060E+06    -0.844206489113217E+06
    -0.249600000000000E+02    -0.372400000000000E+02    -0.166155574410074E+06    -0.865128867466428E+06    -0.157894442845018E+05     0.795649148790536E+06     0.000000000000000E+00    -0.165799080870700E+06    -0.865485361005802E+06
    -0.124800000000000E+02    -0.372400000000000E+02    -0.184762537658136E+06    -0.864996201370645E+06    -0.122342386111006E+05     0.789294469929197E+06     0.000000000000000E+00    -0.184542571759094E+06    -0.865216167269686E+06
     0.000000000000000E+00    -0.372400000000000E+02    -0.191980126321304E+06    -0.862820285074394E+06     0.799279643104656E-10     0.784646968972057E+06     0.000000000000000E+00    -0.191980126321304E+06    -0.862820285074394E+06
    -0.650000000000000E+02    -0.380000000000000E+02    -0.175392498159069E+06    -0.551989163971165E+06    -0.995405497465666E+05     0.518039352036090E+06     0.000000000000000E+00    -0.150701199347877E+06    -0.576680462782357E+06
    -0.520000000000000E+02    -0.380000000000000E+02    -0.139043756712249E+06    -0.763705449778943E+06    -0.202252404716068E+05     0.705420361628606E+06     0.000000000000000E+00    -0.138389590747599E+06    -0.764359615743593E+06
    -0.390000000000000E+02    -0.380000000000000E+02    -0.145433198281726E+06    -0.855079799544124E+06    -0.115026100288718E+05     0.792686709128834E+06     0.000000000000000E+00    -0.145246802273109E+06    -0.855266195552741E+06
    -0.260000000000000E+02    -0.380000000000000E+02    -0.168565309179747E+06    -0.881082617664027E+06    -0.169896396080631E+05     0.810596584196575E+06     0.000000000000000E+00    -0.168160429294227E+06    -0.881487497549547E+06
    -0.130000000000000E+02    -0.380000000000000E+02    -0.189871865343632E+06    -0.880978478708165E+06    -0.135046096293756E+05     0.803398096562242E+06     0.000000000000000E+00    -0.189608078405166E+06    -0.881242265646631E+06
     0.000000000000000E+00    -0.380000000000000E+02    -0.198211932335772E+06    -0.878326127418245E+06     0.784546669508835E-10     0.797903526304556E+06     0.000000000000000E+00    -0.198211932335772E+06    -0.878326127418245E+06
 zone I=    6 ,j=    6 ,f=point, T="    2"
     0.000000000000000E+00    -0.190000000000000E+02    -0.943891116079664E+05    -0.480225787236655E+06     0.684264689952710E-10     0.440679050657848E+06     0.000000000000000E+00    -0.943891116079664E+05    -0.480225787236655E+06
     0.104000000000000E+02    -0.190000000000000E+02    -0.937421926539004E+05    -0.478181715825443E+06     0.253221245000685E+04     0.438906351975590E+06     0.000000000000000E+00    -0.937255142914072E+05    -0.478198394187937E+06
     0.208000000000000E+02    -0.190000000000000E+02    -0.920160161437207E+05    -0.472145585990912E+06     0.259539893935737E+04     0.433547752873775E+06     0.000000000000000E+00    -0.919982964444367E+05    -0.472163305690196E+06
     0.312000000000000E+02    -0.190000000000000E+02    -0.898543231334836E+05    -0.462405650930372E+06     0.134700075134496E+04     0.424675266355063E+06     0.000000000000000E+00    -0.898494529661531E+05    -0.462410521097703E+06
     0.416000000000000E+02    -0.190000000000000E+02    -0.883300153832830E+05    -0.449442332639344E+06     0.719739365716179E+04     0.412621813839674E+06     0.000000000000000E+00    -0.881866197950215E+05    -0.449585728227606E+06
     0.520000000000000E+02    -0.190000000000000E+02    -0.889451553572501E+05    -0.433928221911558E+06     0.394363551598483E+05     0.402833473839891E+06     0.000000000000000E+00    -0.844944518434185E+05    -0.438378925425389E+06
     0.000000000000000E+00    -0.220400000000000E+02    -0.106106021970765E+06    -0.544803964124379E+06    -0.304396527764313E-11     0.500262796774812E+06     0.000000000000000E+00    -0.106106021970765E+06    -0.544803964124379E+06
     0.104000000000000E+02    -0.220400000000000E+02    -0.105054356881912E+06    -0.543221231581744E+06     0.301030716628166E+04     0.499084314580558E+06     0.000000000000000E+00    -0.105033676355668E+06    -0.543241912107988E+06
     0.208000000000000E+02    -0.220400000000000E+02    -0.102322986537482E+06    -0.538039096217288E+06     0.336503606100200E+04     0.494910361415541E+06     0.000000000000000E+00    -0.102296999909640E+06    -0.538065082845130E+06
     0.312000000000000E+02    -0.220400000000000E+02    -0.991827857038661E+05    -0.527955744821361E+06     0.203507565654929E+04     0.486027567704650E+06     0.000000000000000E+00    -0.991731268866598E+05    -0.527965403638567E+06
     0.416000000000000E+02    -0.220400000000000E+02    -0.977518789917146E+05    -0.510801488711211E+06     0.724424941321066E+04     0.469786358732772E+06     0.000000000000000E+00    -0.976248651517042E+05    -0.510928502551221E+06
     0.520000000000000E+02    -0.220400000000000E+02    -0.100995640855938E+06    -0.483538763730989E+06     0.380957825231215E+05     0.446686035285236E+06     0.000000000000000E+00    -0.972387457523783E+05    -0.487295658834549E+06
     0.000000000000000E+00    -0.250800000000000E+02    -0.118908657241815E+06    -0.609195266608982E+06    -0.607754223367892E-10     0.559302735980521E+06     0.000000000000000E+00    -0.118908657241815E+06    -0.609195266608982E+06
     0.104000000000000E+02    -0.250800000000000E+02    -0.117373231177910E+06    -0.608110069052530E+06     0.373597312009973E+04     0.558784717265210E+06     0.000000000000000E+00    -0.117344790911706E+06    -0.608138509318735E+06
     0.208000000000000E+02    -0.250800000000000E+02    -0.113399622478438E+06    -0.603890516510971E+06     0.450760498597573E+04     0.555988515373848E+06     0.000000000000000E+00    -0.113358201144770E+06    -0.603931937844638E+06
     0.312000000000000E+02    -0.250800000000000E+02    -0.108885839620121E+06    -0.593644729367690E+06     0.297702158735375E+04     0.547409603455356E+06     0.000000000000000E+00    -0.108867557699995E+06    -0.593663011287816E+06
     0.416000000000000E+02    -0.250800000000000E+02    -0.106995230064168E+06    -0.572552908261666E+06     0.705928340185843E+04     0.527402960096408E+06     0.000000000000000E+00    -0.106888214259042E+06    -0.572659924066792E+06
     0.520000000000000E+02    -0.250800000000000E+02    -0.112156480256269E+06    -0.533867334087471E+06     0.355488526389627E+05     0.491434520690121E+06     0.000000000000000E+00    -0.109180824343141E+06    -0.536842990000599E+06
     0.000000000000000E+00    -0.281200000000000E+02    -0.133350672006272E+06    -0.673313475515960E+06    -0.766343009556468E-10     0.617532698409545E+06     0.000000000000000E+00    -0.133350672006272E+06    -0.673313475515960E+06
     0.104000000000000E+02    -0.281200000000000E+02    -0.131212197440335E+06    -0.672779870623017E+06     0.476717561880974E+04     0.617770708066283E+06     0.000000000000000E+00    -0.131170237397554E+06    -0.672821830665798E+06
     0.208000000000000E+02    -0.281200000000000E+02    -0.125638487804876E+06    -0.669685073936330E+06     0.613903632897587E+04     0.616634390199972E+06     0.000000000000000E+00    -0.125569223571858E+06    -0.669754338169348E+06
     0.312000000000000E+02    -0.281200000000000E+02    -0.119154685286954E+06    -0.659547139432321E+06     0.434673446580426E+04     0.608825770339734E+06     0.000000000000000E+00    -0.119119723884233E+06    -0.659582100835042E+06
     0.416000000000000E+02    -0.281200000000000E+02    -0.115969360198332E+06    -0.634896157071700E+06     0.687435685249969E+04     0.585709221361287E+06     0.000000000000000E+00    -0.115878309799230E+06    -0.634987207470803E+06
     0.520000000000000E+02    -0.281200000000000E+02    -0.121974510975482E+06    -0.585274252799459E+06     0.320853920441152E+05     0.537702156117857E+06     0.000000000000000E+00    -0.119763023223485E+06    -0.587485740551456E+06
     0.000000000000000E+00    -0.311600000000000E+02    -0.149981643898075E+06    -0.737051986914721E+06    -0.405307000508073E-10     0.674682040879625E+06     0.000000000000000E+00    -0.149981643898075E+06    -0.737051986914721E+06
     0.104000000000000E+02    -0.311600000000000E+02    -0.147080560616407E+06    -0.737141893922331E+06     0.618542400199468E+04     0.675800561175377E+06     0.000000000000000E+00    -0.147015727920809E+06    -0.737206726617929E+06
     0.208000000000000E+02    -0.311600000000000E+02    -0.139428069403868E+06    -0.735387610801646E+06     0.842234876916844E+04     0.676693621735136E+06     0.000000000000000E+00    -0.139309065022161E+06    -0.735506615183354E+06
     0.312000000000000E+02    -0.311600000000000E+02    -0.130176446157852E+06    -0.725717125122129E+06     0.638874231064987E+04     0.670270411588084E+06     0.000000000000000E+00    -0.130107917955432E+06    -0.725785653324549E+06
     0.416000000000000E+02    -0.311600000000000E+02    -0.124579484040678E+06    -0.698010416166216E+06     0.701550712346646E+04     0.644925161115589E+06     0.000000000000000E+00    -0.124493667296361E+06    -0.698096232910533E+06
     0.520000000000000E+02    -0.311600000000000E+02    -0.129992493479597E+06    -0.638099454929321E+06     0.281129474364940E+05     0.586081766435885E+06     0.000000000000000E+00    -0.128441770635768E+06    -0.639650177773150E+06
     0.000000000000000E+00    -0.342000000000000E+02    -0.169345697179596E+06    -0.800276930016854E+06     0.299520680450969E-10     0.730477703437958E+06     0.000000000000000E+00    -0.169345697179596E+06    -0.800276930016854E+06
     0.104000000000000E+02    -0.342000000000000E+02    -0.165482172281784E+06    -0.801080129721778E+06     0.809577164147194E+04     0.732629420713800E+06     0.000000000000000E+00    -0.165379071118771E+06    -0.801183230884791E+06
     0.208000000000000E+02    -0.342000000000000E+02    -0.155151400790923E+06    -0.800935702557382E+06     0.115676490501882E+05     0.736006176683917E+06     0.000000000000000E+00    -0.154944261042702E+06    -0.801142842305603E+06
     0.312000000000000E+02    -0.342000000000000E+02    -0.142132792314741E+06    -0.792181569686166E+06     0.941820523734266E+04     0.731727066091949E+06     0.000000000000000E+00    -0.141996365663774E+06    -0.792317996337132E+06
     0.416000000000000E+02    -0.342000000000000E+02    -0.132725362866114E+06    -0.762047599712295E+06     0.790294770202822E+04     0.705249524444568E+06     0.000000000000000E+00    -0.132626134311300E+06    -0.762146828267110E+06
     0.520000000000000E+02    -0.342000000000000E+02    -0.135747734863073E+06    -0.692655608681605E+06     0.241567856751859E+05     0.637121229219589E+06     0.000000000000000E+00    -0.134701859116899E+06    -0.693701484427780E+06
 zone I=    6 ,j=    6 ,f=point, T="    2"
     0.000000000000000E+00    -0.342000000000000E+02    -0.169345697179596E+06    -0.800276930016854E+06     0.299520680450969E-10     0.730477703437958E+06     0.000000000000000E+00    -0.169345697179596E+06    -0.800276930016854E+06
     0.104000000000000E+02    -0.342000000000000E+02    -0.165482172281784E+06    -0.801080129721778E+06     0.809577164147194E+04     0.732629420713800E+06     0.000000000000000E+00    -0.165379071118771E+06    -0.801183230884791E+06
     0.208000000000000E+02    -0.342000000000000E+02    -0.155151400790923E+06    -0.800935702557382E+06     0.115676490501882E+05     0.736006176683917E+06     0.000000000000000E+00    -0.154944261042702E+06    -0.801142842305603E+06
     0.312000000000000E+02    -0.342000000000000E+02    -0.142132792314741E+06    -0.792181569686166E+06     0.941820523734266E+04     0.731727066091949E+06     0.000000000000000E+00    -0.141996365663774E+06    -0.792317996337132E+06
     0.416000000000000E+02    -0.342000000000000E+02    -0.132725362866114E+06    -0.762047599712295E+06     0.790294770202822E+04     0.705249524444568E+06     0.000000000000000E+00    -0.132626134311300E+06    -0.762146828267110E+06
     0.520000000000000E+02    -0.342000000000000E+02    -0.135747734863073E+06    -0.692655608681605E+06     0.241567856751859E+05     0.637121229219589E+06     0.000000000000000E+00    -0.134701859116899E+06    -0.693701484427780E+06
     0.000000000000000E+00    -0.349600000000000E+02    -0.174676888389895E+06    -0.815984079566910E+06     0.474697181258080E-10     0.744183091349026E+06     0.000000000000000E+00    -0.174676888389895E+06    -0.815984079566910E+06
     0.109200000000000E+02    -0.349600000000000E+02    -0.170124807636411E+06    -0.817058682812106E+06     0.900230539594964E+04     0.746839015182145E+06     0.000000000000000E+00    -0.169999561735685E+06    -0.817183928712831E+06
     0.218400000000000E+02    -0.349600000000000E+02    -0.158063387787835E+06    -0.817016996338069E+06     0.125418823987413E+05     0.750887627401813E+06     0.000000000000000E+00    -0.157824764202125E+06    -0.817255619923779E+06
     0.327600000000000E+02    -0.349600000000000E+02    -0.143277096079792E+06    -0.806062531515932E+06     0.978439589568021E+04     0.745024855565056E+06     0.000000000000000E+00    -0.143132685017974E+06    -0.806206942577749E+06
     0.436800000000000E+02    -0.349600000000000E+02    -0.133740044571659E+06    -0.767867807297578E+06     0.915229733499722E+04     0.710678540461456E+06     0.000000000000000E+00    -0.133607977960101E+06    -0.767999873909137E+06
     0.546000000000000E+02    -0.349600000000000E+02    -0.140615990146565E+06    -0.679574350215651E+06     0.329532180063117E+05     0.623933392080481E+06     0.000000000000000E+00    -0.138608627146170E+06    -0.681581713216046E+06
     0.000000000000000E+00    -0.357200000000000E+02    -0.180220838288763E+06    -0.831645829411647E+06     0.626541973602926E-10     0.757782572770957E+06     0.000000000000000E+00    -0.180220838288763E+06    -0.831645829411647E+06
     0.114400000000000E+02    -0.357200000000000E+02    -0.174886683288616E+06    -0.833037041959457E+06     0.998996210336461E+04     0.761017987942392E+06     0.000000000000000E+00    -0.174735082125447E+06    -0.833188643122625E+06
     0.228800000000000E+02    -0.357200000000000E+02    -0.160881727234615E+06    -0.833083327023152E+06     0.135684556751040E+05     0.765790561647461E+06     0.000000000000000E+00    -0.160607958115448E+06    -0.833357096142319E+06
     0.343200000000000E+02    -0.357200000000000E+02    -0.144198496966083E+06    -0.819402626863530E+06     0.101644739446462E+05     0.757870169505347E+06     0.000000000000000E+00    -0.144045516374087E+06    -0.819555607455526E+06
     0.457600000000000E+02    -0.357200000000000E+02    -0.134824537215226E+06    -0.771358178581923E+06     0.108879336635254E+05     0.713812809736852E+06     0.000000000000000E+00    -0.134638353128093E+06    -0.771544362669056E+06
     0.572000000000000E+02    -0.357200000000000E+02    -0.146742410607129E+06    -0.660058514120200E+06     0.443701368664346E+05     0.605192636080644E+06     0.000000000000000E+00    -0.142935369545055E+06    -0.663865555182273E+06
     0.000000000000000E+00    -0.364800000000000E+02    -0.185985833604434E+06    -0.847259011753170E+06     0.740321201798871E-10     0.771271929813806E+06     0.000000000000000E+00    -0.185985833604434E+06    -0.847259011753170E+06
     0.119600000000000E+02    -0.364800000000000E+02    -0.179766576039205E+06    -0.849015966235283E+06     0.110650463699278E+05     0.775168849531547E+06     0.000000000000000E+00    -0.179583681885411E+06    -0.849198860389077E+06
     0.239200000000000E+02    -0.364800000000000E+02    -0.163586422213336E+06    -0.849124562735771E+06     0.146500381489406E+05     0.780712278752975E+06     0.000000000000000E+00    -0.163273491860262E+06    -0.849437493088845E+06
     0.358800000000000E+02    -0.364800000000000E+02    -0.144878228736269E+06    -0.832098000417083E+06     0.105690417024744E+05     0.770168171863765E+06     0.000000000000000E+00    -0.144715721430039E+06    -0.832260507723313E+06
     0.478400000000000E+02    -0.364800000000000E+02    -0.136030089957078E+06    -0.772124944549971E+06     0.132243653086677E+05     0.714264335675695E+06     0.000000000000000E+00    -0.135755275103050E+06    -0.772399759403999E+06
     0.598000000000000E+02    -0.364800000000000E+02    -0.154385337964466E+06    -0.633069526513487E+06     0.589006801147114E+05     0.580760773061121E+06     0.000000000000000E+00    -0.147244312716190E+06    -0.640210551761763E+06
     0.000000000000000E+00    -0.372400000000000E+02    -0.191980126321304E+06    -0.862820285074394E+06     0.799279643104656E-10     0.784646968972057E+06     0.000000000000000E+00    -0.191980126321304E+06    -0.862820285074394E+06
     0.124800000000000E+02    -0.372400000000000E+02    -0.184762537658135E+06    -0.864996201370647E+06     0.122342386111006E+05     0.789294469929198E+06     0.000000000000000E+00    -0.184542571759094E+06    -0.865216167269688E+06
     0.249600000000000E+02    -0.372400000000000E+02    -0.166155574410074E+06    -0.865128867466430E+06     0.157894442845012E+05     0.795649148790538E+06     0.000000000000000E+00    -0.165799080870700E+06    -0.865485361005804E+06
     0.374400000000000E+02    -0.372400000000000E+02    -0.145296644801451E+06    -0.844033034982825E+06     0.110103950549667E+05     0.781812891583457E+06     0.000000000000000E+00    -0.145123190671060E+06    -0.844206489113215E+06
     0.499200000000000E+02    -0.372400000000000E+02    -0.137414762539484E+06    -0.769733289954971E+06     0.162894909021902E+05     0.711614699055849E+06     0.000000000000000E+00    -0.136995398506700E+06    -0.770152653987755E+06
     0.624000000000000E+02    -0.372400000000000E+02    -0.163830546814278E+06    -0.597464052832064E+06     0.770905647232578E+05     0.551134961263284E+06     0.000000000000000E+00    -0.150533285572256E+06    -0.610761314074085E+06
     0.000000000000000E+00    -0.380000000000000E+02    -0.198211932335772E+06    -0.878326127418245E+06     0.784546669508835E-10     0.797903526304556E+06     0.000000000000000E+00    -0.198211932335772E+06    -0.878326127418245E+06
     0.130000000000000E+02    -0.380000000000000E+02    -0.189871865343632E+06    -0.880978478708167E+06     0.135046096293754E+05     0.803398096562244E+06     0.000000000000000E+00    -0.189608078405166E+06    -0.881242265646633E+06
     0.260000000000000E+02    -0.380000000000000E+02    -0.168565309179748E+06    -0.881082617664028E+06     0.169896396080623E+05     0.810596584196576E+06     0.000000000000000E+00    -0.168160429294228E+06    -0.881487497549548E+06
     0.390000000000000E+02    -0.380000000000000E+02    -0.145433198281728E+06    -0.855079799544122E+06     0.115026100288706E+05     0.792686709128831E+06     0.000000000000000E+00    -0.145246802273111E+06    -0.855266195552740E+06
     0.520000000000000E+02    -0.380000000000000E+02    -0.139043756712253E+06    -0.763705449778938E+06     0.202252404716062E+05     0.705420361628600E+06     0.000000000000000E+00    -0.138389590747603E+06    -0.764359615743588E+06
     0.650000000000000E+02    -0.380000000000000E+02    -0.175392498159074E+06    -0.551989163971163E+06     0.995405497465689E+05     0.518039352036089E+06     0.000000000000000E+00    -0.150701199347880E+06    -0.576680462782356E+06
 zone I=    6 ,j=    6 ,f=point, T="    2"
     0.520000000000000E+02    -0.342000000000000E+02    -0.135747734863073E+06    -0.692655608681605E+06     0.241567856751859E+05     0.637121229219589E+06     0.000000000000000E+00    -0.134701859116899E+06    -0.693701484427780E+06
     0.520000000000000E+02    -0.311600000000000E+02    -0.129992493479597E+06    -0.638099454929321E+06     0.281129474364940E+05     0.586081766435885E+06     0.000000000000000E+00    -0.128441770635768E+06    -0.639650177773150E+06
     0.520000000000000E+02    -0.281200000000000E+02    -0.121974510975482E+06    -0.585274252799459E+06     0.320853920441152E+05     0.537702156117857E+06     0.000000000000000E+00    -0.119763023223485E+06    -0.587485740551456E+06
     0.520000000000000E+02    -0.250800000000000E+02    -0.112156480256269E+06    -0.533867334087471E+06     0.355488526389627E+05     0.491434520690121E+06     0.000000000000000E+00    -0.109180824343141E+06    -0.536842990000599E+06
     0.520000000000000E+02    -0.220400000000000E+02    -0.100995640855938E+06    -0.483538763730989E+06     0.380957825231215E+05     0.446686035285236E+06     0.000000000000000E+00    -0.972387457523783E+05    -0.487295658834549E+06
     0.520000000000000E+02    -0.190000000000000E+02    -0.889451553572501E+05    -0.433928221911558E+06     0.394363551598483E+05     0.402833473839891E+06     0.000000000000000E+00    -0.844944518434185E+05    -0.438378925425389E+06
     0.546000000000000E+02    -0.349600000000000E+02    -0.140615990146565E+06    -0.679574350215651E+06     0.329532180063117E+05     0.623933392080481E+06     0.000000000000000E+00    -0.138608627146170E+06    -0.681581713216046E+06
     0.546000000000000E+02    -0.317680000000000E+02    -0.135486449146400E+06    -0.625985865858750E+06     0.388694385405206E+05     0.574399494893195E+06     0.000000000000000E+00    -0.132425358902828E+06    -0.629046956102322E+06
     0.546000000000000E+02    -0.285760000000000E+02    -0.127171975849789E+06    -0.574633826467224E+06     0.446415318201632E+05     0.528467620530997E+06     0.000000000000000E+00    -0.122761731478973E+06    -0.579044070838040E+06
     0.546000000000000E+02    -0.253840000000000E+02    -0.116328949597990E+06    -0.525109739740214E+06     0.496059920165618E+05     0.485354985725701E+06     0.000000000000000E+00    -0.110395337382077E+06    -0.531043351956127E+06
     0.546000000000000E+02    -0.221920000000000E+02    -0.103606870167915E+06    -0.476970715555110E+06     0.532495573722770E+05     0.444212280473828E+06     0.000000000000000E+00    -0.961608566418082E+05    -0.484416729081217E+06
     0.546000000000000E+02    -0.190000000000000E+02    -0.896501144720371E+05    -0.429748249467103E+06     0.552092102011074E+05     0.404150828106408E+06     0.000000000000000E+00    -0.809123193431159E+05    -0.438486044596024E+06
     0.572000000000000E+02    -0.357200000000000E+02    -0.146742410607129E+06    -0.660058514120200E+06     0.443701368664346E+05     0.605192636080644E+06     0.000000000000000E+00    -0.142935369545055E+06    -0.663865555182273E+06
     0.572000000000000E+02    -0.323760000000000E+02    -0.142401881031296E+06    -0.608535508484517E+06     0.527620517170285E+05     0.558827935977972E+06     0.000000000000000E+00    -0.136504317157259E+06    -0.614433072358554E+06
     0.572000000000000E+02    -0.290320000000000E+02    -0.133725342990000E+06    -0.559862119725737E+06     0.607902570403854E+05     0.517249139706645E+06     0.000000000000000E+00    -0.125222989894296E+06    -0.568364472821440E+06
     0.572000000000000E+02    -0.256880000000000E+02    -0.121613077564324E+06    -0.513512481135719E+06     0.676253856973259E+05     0.479327188974669E+06     0.000000000000000E+00    -0.110271972943621E+06    -0.524853585756422E+06
     0.572000000000000E+02    -0.223440000000000E+02    -0.106956776988944E+06    -0.468917781774247E+06     0.726276600454398E+05     0.443840100269897E+06     0.000000000000000E+00    -0.929277430763865E+05    -0.482946815686804E+06
     0.572000000000000E+02    -0.190000000000000E+02    -0.906417613908479E+05    -0.425477350162681E+06     0.753468919390857E+05     0.409526983645128E+06     0.000000000000000E+00    -0.744679655501822E+05    -0.441651146003346E+06
     0.598000000000000E+02    -0.364800000000000E+02    -0.154385337964466E+06    -0.633069526513487E+06     0.589006801147114E+05     0.580760773061121E+06     0.000000000000000E+00    -0.147244312716190E+06    -0.640210551761763E+06
     0.598000000000000E+02    -0.329840000000000E+02    -0.151008986299891E+06    -0.584895816837087E+06     0.703683929222741E+05     0.539849458898145E+06     0.000000000000000E+00    -0.139881894595608E+06    -0.596022908541370E+06
     0.598000000000000E+02    -0.294880000000000E+02    -0.141880123719308E+06    -0.540308509928067E+06     0.811821438028125E+05     0.505149323061376E+06     0.000000000000000E+00    -0.125973803606910E+06    -0.556214830040464E+06
     0.598000000000000E+02    -0.259920000000000E+02    -0.128201550866213E+06    -0.498639440528023E+06     0.903151437556047E+05     0.474995847635151E+06     0.000000000000000E+00    -0.107355256717155E+06    -0.519485734677081E+06
     0.598000000000000E+02    -0.224960000000000E+02    -0.111165447087655E+06    -0.459167336896288E+06     0.969773810722152E+05     0.447618917074983E+06     0.000000000000000E+00    -0.859656358005839E+05    -0.484367148183359E+06
     0.598000000000000E+02    -0.190000000000000E+02    -0.919561389071856E+05    -0.421131663174703E+06     0.100615621336495E+06     0.421251323160758E+06     0.000000000000000E+00    -0.636381346649032E+05    -0.449449667416986E+06
     0.624000000000000E+02    -0.372400000000000E+02    -0.163830546814278E+06    -0.597464052832064E+06     0.770905647232578E+05     0.551134961263284E+06     0.000000000000000E+00    -0.150533285572256E+06    -0.610761314074085E+06
     0.624000000000000E+02    -0.335920000000000E+02    -0.161605533998017E+06    -0.554128298588723E+06     0.923268255716434E+05     0.518842026515956E+06     0.000000000000000E+00    -0.140973456501196E+06    -0.574760376085544E+06
     0.624000000000000E+02    -0.299440000000000E+02    -0.151906058369131E+06    -0.515256754243338E+06     0.106535456508958E+06     0.494311401100727E+06     0.000000000000000E+00    -0.122973392352255E+06    -0.544189420260214E+06
     0.624000000000000E+02    -0.262960000000000E+02    -0.136305298891081E+06    -0.480010328579206E+06     0.118456391007854E+06     0.475033523503896E+06     0.000000000000000E+00    -0.994350228644901E+05    -0.516880604605797E+06
     0.624000000000000E+02    -0.226480000000000E+02    -0.116363413928916E+06    -0.447484827387562E+06     0.127122487972433E+06     0.458467701688968E+06     0.000000000000000E+00    -0.731887030573578E+05    -0.490659538259120E+06
     0.624000000000000E+02    -0.190000000000000E+02    -0.936309662235538E+05    -0.416728078338951E+06     0.131859531738242E+06     0.442234332470191E+06     0.000000000000000E+00    -0.466492557141279E+05    -0.463709788848377E+06
     0.650000000000000E+02    -0.380000000000000E+02    -0.175392498159074E+06    -0.551989163971163E+06     0.995405497465689E+05     0.518039352036089E+06     0.000000000000000E+00    -0.150701199347880E+06    -0.576680462782356E+06
     0.650000000000000E+02    -0.342000000000000E+02    -0.174518095045117E+06    -0.515204570668872E+06     0.119339295282937E+06     0.498703716750225E+06     0.000000000000000E+00    -0.136874107126995E+06    -0.552848558586994E+06
     0.650000000000000E+02    -0.304000000000000E+02    -0.164098171144724E+06    -0.483921958889123E+06     0.137639274587800E+06     0.488397044795338E+06     0.000000000000000E+00    -0.113021004374318E+06    -0.534999125659530E+06
     0.650000000000000E+02    -0.266000000000000E+02    -0.146154259928566E+06    -0.457098636218555E+06     0.152906620473384E+06     0.483357654114450E+06     0.000000000000000E+00    -0.835621550974199E+05    -0.519690741049701E+06
     0.650000000000000E+02    -0.228000000000000E+02    -0.122692060670967E+06    -0.433612739262073E+06     0.163966719173461E+06     0.480133068928110E+06     0.000000000000000E+00    -0.522032860262418E+05    -0.504101513906798E+06
     0.650000000000000E+02    -0.190000000000000E+02    -0.957056389514556E+05    -0.412284236150571E+06     0.170004210343345E+06     0.475798517293146E+06     0.000000000000000E+00    -0.217086194313179E+05    -0.486281255670709E+06
 zone I=    6 ,j=    6 ,f=point, T="    2"
     0.000000000000000E+00    -0.190000000000000E+02    -0.943891116079664E+05    -0.480225787236655E+06     0.684264689952710E-10     0.440679050657848E+06     0.000000000000000E+00    -0.943891116079664E+05    -0.480225787236655E+06
     0.704000000000000E+01    -0.159600000000000E+02    -0.830727342918051E+05    -0.414380859729883E+06     0.172100200402363E+04     0.379733736427167E+06     0.000000000000000E+00    -0.830637946741088E+05    -0.414389799347579E+06
     0.140800000000000E+02    -0.129200000000000E+02    -0.721185958760270E+05    -0.345570461622677E+06     0.244803144723319E+04     0.315778336689966E+06     0.000000000000000E+00    -0.720966820458386E+05    -0.345592375452865E+06
     0.211200000000000E+02    -0.988000000000000E+01    -0.617863449867775E+05    -0.273902765839335E+06     0.201580410470543E+04     0.248855414200387E+06     0.000000000000000E+00    -0.617671899432569E+05    -0.273921920882855E+06
     0.281600000000000E+02    -0.684000000000000E+01    -0.520744344547743E+05    -0.201532645535022E+06     0.785461496855068E+03     0.181202390296066E+06     0.000000000000000E+00    -0.520703066606578E+05    -0.201536773329139E+06
     0.352000000000000E+02    -0.380000000000000E+01    -0.426516457385834E+05    -0.133617751544344E+06    -0.139375658000556E+03     0.118211284086767E+06     0.000000000000000E+00    -0.426514321916994E+05    -0.133617965091228E+06
     0.104000000000000E+02    -0.190000000000000E+02    -0.937421926539004E+05    -0.478181715825443E+06     0.253221245000685E+04     0.438906351975590E+06     0.000000000000000E+00    -0.937255142914072E+05    -0.478198394187937E+06
     0.160320000000000E+02    -0.159600000000000E+02    -0.825355301208421E+05    -0.409793961085384E+06     0.254064451174355E+04     0.375419774491809E+06     0.000000000000000E+00    -0.825158072201266E+05    -0.409813683986100E+06
     0.216640000000000E+02    -0.129200000000000E+02    -0.721158524876707E+05    -0.339476857223858E+06     0.180879676874677E+04     0.309795715027386E+06     0.000000000000000E+00    -0.721036158639383E+05    -0.339489093847590E+06
     0.272960000000000E+02    -0.988000000000000E+01    -0.622058112153315E+05    -0.268421631476811E+06     0.727910613479820E+03     0.243359691447570E+06     0.000000000000000E+00    -0.622032418331240E+05    -0.268424200859019E+06
     0.329280000000000E+02    -0.684000000000000E+01    -0.524517851815727E+05    -0.199205872159617E+06    -0.826237800379429E+02     0.178844866122152E+06     0.000000000000000E+00    -0.524517386637074E+05    -0.199205918677483E+06
     0.385600000000000E+02    -0.380000000000000E+01    -0.424816815060591E+05    -0.136151486497411E+06     0.263295518865646E+03     0.120657301588707E+06     0.000000000000000E+00    -0.424809414171635E+05    -0.136152226586307E+06
     0.208000000000000E+02    -0.190000000000000E+02    -0.920160161437207E+05    -0.472145585990912E+06     0.259539893935737E+04     0.433547752873775E+06     0.000000000000000E+00    -0.919982964444367E+05    -0.472163305690196E+06
     0.250240000000000E+02    -0.159600000000000E+02    -0.815879844526173E+05    -0.402581145639570E+06     0.145988021150559E+04     0.368630963879660E+06     0.000000000000000E+00    -0.815813450396707E+05    -0.402587785052516E+06
     0.292480000000000E+02    -0.129200000000000E+02    -0.717440837172068E+05    -0.332887237080561E+06     0.520654939820893E+03     0.303445628735615E+06     0.000000000000000E+00    -0.717430456639961E+05    -0.332888275133771E+06
     0.334720000000000E+02    -0.988000000000000E+01    -0.619885647761950E+05    -0.264581834897969E+06     0.107243570706422E+03     0.239677107403610E+06     0.000000000000000E+00    -0.619885080063910E+05    -0.264581891667773E+06
     0.376960000000000E+02    -0.684000000000000E+01    -0.519516765103869E+05    -0.199854289566581E+06     0.560551153215555E+03     0.179607602852476E+06     0.000000000000000E+00    -0.519495520510852E+05    -0.199856414025883E+06
     0.419200000000000E+02    -0.380000000000000E+01    -0.414670252269801E+05    -0.141657510585106E+06     0.223888008928798E+04     0.126203354446240E+06     0.000000000000000E+00    -0.414170196453312E+05    -0.141707516166755E+06
     0.312000000000000E+02    -0.190000000000000E+02    -0.898543231334836E+05    -0.462405650930372E+06     0.134700075134496E+04     0.424675266355063E+06     0.000000000000000E+00    -0.898494529661531E+05    -0.462410521097703E+06
     0.340160000000000E+02    -0.159600000000000E+02    -0.802442223745429E+05    -0.394339985276744E+06     0.112361675672288E+04     0.360975679633247E+06     0.000000000000000E+00    -0.802402029046584E+05    -0.394344004746628E+06
     0.368320000000000E+02    -0.129200000000000E+02    -0.706169537753809E+05    -0.327996365784061E+06     0.158327819476440E+04     0.299021380901979E+06     0.000000000000000E+00    -0.706072145543220E+05    -0.328006105005121E+06
     0.396480000000000E+02    -0.988000000000000E+01    -0.606297775068596E+05    -0.264446664150237E+06     0.268513877365584E+04     0.239992282379165E+06     0.000000000000000E+00    -0.605944089001942E+05    -0.264482032756903E+06
     0.424640000000000E+02    -0.684000000000000E+01    -0.501673493644581E+05    -0.204928109248725E+06     0.436739860734200E+04     0.185172393630963E+06     0.000000000000000E+00    -0.500441979639209E+05    -0.205051260649262E+06
     0.452800000000000E+02    -0.380000000000000E+01    -0.393909131841086E+05    -0.150852468397946E+06     0.656019643706027E+04     0.135996335644891E+06     0.000000000000000E+00    -0.390061336792543E+05    -0.151237247902800E+06
     0.416000000000000E+02    -0.190000000000000E+02    -0.883300153832830E+05    -0.449442332639344E+06     0.719739365716179E+04     0.412621813839674E+06     0.000000000000000E+00    -0.881866197950215E+05    -0.449585728227606E+06
     0.430080000000000E+02    -0.159600000000000E+02    -0.785245562687513E+05    -0.387367845645026E+06     0.905315803081139E+04     0.355032314861349E+06     0.000000000000000E+00    -0.782594076663166E+05    -0.387632994247461E+06
     0.444160000000000E+02    -0.129200000000000E+02    -0.682330274611809E+05    -0.327652884994313E+06     0.108804136614055E+05     0.300017601127655E+06     0.000000000000000E+00    -0.677774883721327E+05    -0.328108424083361E+06
     0.458240000000000E+02    -0.988000000000000E+01    -0.575220074108368E+05    -0.270498801270674E+06     0.124444682313167E+05     0.247756620785017E+06     0.000000000000000E+00    -0.567973292507080E+05    -0.271223479430803E+06
     0.472320000000000E+02    -0.684000000000000E+01    -0.466371220549420E+05    -0.216073357390683E+06     0.135710382368294E+05     0.198338590855827E+06     0.000000000000000E+00    -0.455570314663889E+05    -0.217153447979236E+06
     0.486400000000000E+02    -0.380000000000000E+01    -0.360184821052883E+05    -0.164512843637388E+06     0.141593188149363E+05     0.151781958045396E+06     0.000000000000000E+00    -0.344767082840482E+05    -0.166054617458628E+06
     0.520000000000000E+02    -0.190000000000000E+02    -0.889451553572501E+05    -0.433928221911558E+06     0.394363551598483E+05     0.402833473839891E+06     0.000000000000000E+00    -0.844944518434185E+05    -0.438378925425389E+06
     0.520000000000000E+02    -0.159600000000000E+02    -0.764554858120948E+05    -0.384661886156359E+06     0.393984641735718E+05     0.359245617273695E+06     0.000000000000000E+00    -0.714988378687191E+05    -0.389618534099734E+06
     0.520000000000000E+02    -0.129200000000000E+02    -0.639757701618365E+05    -0.335359313439945E+06     0.379277233498925E+05     0.315308475173066E+06     0.000000000000000E+00    -0.587747843963625E+05    -0.340560299205419E+06
     0.520000000000000E+02    -0.988000000000000E+01    -0.519551986576581E+05    -0.285640322285969E+06     0.350874666355826E+05     0.270448937211617E+06     0.000000000000000E+00    -0.468005696590827E+05    -0.290794951284544E+06
     0.520000000000000E+02    -0.684000000000000E+01    -0.408443902809079E+05    -0.235131874868915E+06     0.310587481385864E+05     0.224154817570292E+06     0.000000000000000E+00    -0.360001308157833E+05    -0.239976134334039E+06
     0.520000000000000E+02    -0.380000000000000E+01    -0.310967691634447E+05    -0.183474959115825E+06     0.261403421280199E+05     0.175995862689356E+06     0.000000000000000E+00    -0.267371479496119E+05    -0.187834580329658E+06
 zone I=    6 ,j=    6 ,f=point, T="    2"
     0.520000000000000E+02    -0.190000000000000E+02    -0.889451553572501E+05    -0.433928221911558E+06     0.394363551598483E+05     0.402833473839891E+06     0.000000000000000E+00    -0.844944518434185E+05    -0.438378925425389E+06
     0.520000000000000E+02    -0.159600000000000E+02    -0.764554858120948E+05    -0.384661886156359E+06     0.393984641735718E+05     0.359245617273695E+06     0.000000000000000E+00    -0.714988378687191E+05    -0.389618534099734E+06
     0.520000000000000E+02    -0.129200000000000E+02    -0.639757701618365E+05    -0.335359313439945E+06     0.379277233498925E+05     0.315308475173066E+06     0.000000000000000E+00    -0.587747843963625E+05    -0.340560299205419E+06
     0.520000000000000E+02    -0.988000000000000E+01    -0.519551986576581E+05    -0.285640322285969E+06     0.350874666355826E+05     0.270448937211617E+06     0.000000000000000E+00    -0.468005696590827E+05    -0.290794951284544E+06
     0.520000000000000E+02    -0.684000000000000E+01    -0.408443902809079E+05    -0.235131874868915E+06     0.310587481385864E+05     0.224154817570292E+06     0.000000000000000E+00    -0.360001308157833E+05    -0.239976134334039E+06
     0.520000000000000E+02    -0.380000000000000E+01    -0.310967691634447E+05    -0.183474959115825E+06     0.261403421280199E+05     0.175995862689356E+06     0.000000000000000E+00    -0.267371479496119E+05    -0.187834580329658E+06
     0.546000000000000E+02    -0.190000000000000E+02    -0.896501144720371E+05    -0.429748249467103E+06     0.552092102011074E+05     0.404150828106408E+06     0.000000000000000E+00    -0.809123193431159E+05    -0.438486044596024E+06
     0.546000000000000E+02    -0.158080000000000E+02    -0.750996932582982E+05    -0.382957006208736E+06     0.552721768880897E+05     0.364281648519797E+06     0.000000000000000E+00    -0.654769974853188E+05    -0.392579701981716E+06
     0.546000000000000E+02    -0.126160000000000E+02    -0.605950078100215E+05    -0.336103603189453E+06     0.533759278894989E+05     0.323756321362817E+06     0.000000000000000E+00    -0.506156390250578E+05    -0.346082971974417E+06
     0.546000000000000E+02    -0.942400000000000E+01    -0.467756066458188E+05    -0.288695393995144E+06     0.496081777328481E+05     0.281801347752350E+06     0.000000000000000E+00    -0.369981025501436E+05    -0.298472898090819E+06
     0.546000000000000E+02    -0.623200000000000E+01    -0.342829422195005E+05    -0.240249251887699E+06     0.442068850168885E+05     0.237742124975297E+06     0.000000000000000E+00    -0.251956778410330E+05    -0.249336516266167E+06
     0.546000000000000E+02    -0.304000000000000E+01    -0.237621276199845E+05    -0.190300353304557E+06     0.375602524116096E+05     0.191021568361241E+06     0.000000000000000E+00    -0.156829087053896E+05    -0.198379572219152E+06
     0.572000000000000E+02    -0.190000000000000E+02    -0.906417613908479E+05    -0.425477350162681E+06     0.753468919390857E+05     0.409526983645128E+06     0.000000000000000E+00    -0.744679655501822E+05    -0.441651146003346E+06
     0.572000000000000E+02    -0.156560000000000E+02    -0.735491955280751E+05    -0.382569737977620E+06     0.755224827293909E+05     0.375156405130294E+06     0.000000000000000E+00    -0.560796152830783E+05    -0.400039318222617E+06
     0.572000000000000E+02    -0.123120000000000E+02    -0.565583055284422E+05    -0.339563803744559E+06     0.730834232642517E+05     0.339589201311235E+06     0.000000000000000E+00    -0.387995879813179E+05    -0.357322521291684E+06
     0.572000000000000E+02    -0.896800000000000E+01    -0.405485956282757E+05    -0.295829796531544E+06     0.681482938883332E+05     0.301822040627651E+06     0.000000000000000E+00    -0.234953370410953E+05    -0.312883055118724E+06
     0.572000000000000E+02    -0.562400000000000E+01    -0.264020649111420E+05    -0.250750439642828E+06     0.610252644430693E+05     0.261007224669617E+06     0.000000000000000E+00    -0.108768740031116E+05    -0.266275630550858E+06
     0.572000000000000E+02    -0.228000000000000E+01    -0.150054240465784E+05    -0.203732014312532E+06     0.522120942666631E+05     0.216455814205045E+06     0.000000000000000E+00    -0.152376447112118E+04    -0.217213673887989E+06
     0.598000000000000E+02    -0.190000000000000E+02    -0.919561389071856E+05    -0.421131663174703E+06     0.100615621336495E+06     0.421251323160758E+06     0.000000000000000E+00    -0.636381346649032E+05    -0.449449667416986E+06
     0.598000000000000E+02    -0.155040000000000E+02    -0.717528684978158E+05    -0.383746461752403E+06     0.100913407424583E+06     0.394240356930453E+06     0.000000000000000E+00    -0.419580712463307E+05    -0.413541259003888E+06
     0.598000000000000E+02    -0.120080000000000E+02    -0.517325621549702E+05    -0.346214195630595E+06     0.977910595049020E+05     0.365129091974521E+06     0.000000000000000E+00    -0.222166267368626E+05    -0.375730131048702E+06
     0.598000000000000E+02    -0.851200000000000E+01    -0.330725987694433E+05    -0.307739590787335E+06     0.914056750381640E+05     0.332693097017786E+06     0.000000000000000E+00    -0.543492591782252E+04    -0.335377263638956E+06
     0.598000000000000E+02    -0.501600000000000E+01    -0.169535783003534E+05    -0.267543478542314E+06     0.821511287773666E+05     0.295935028838558E+06     0.757681150891451E+04     0.000000000000000E+00    -0.292073868351582E+06
     0.598000000000000E+02    -0.152000000000000E+01    -0.456209024809811E+04    -0.224876637921632E+06     0.706580727677944E+05     0.254051367198167E+06     0.161515197144254E+05     0.000000000000000E+00    -0.245590247884156E+06
     0.624000000000000E+02    -0.190000000000000E+02    -0.936309662235538E+05    -0.416728078338951E+06     0.131859531738242E+06     0.442234332470191E+06     0.000000000000000E+00    -0.466492557141279E+05    -0.463709788848377E+06
     0.624000000000000E+02    -0.153520000000000E+02    -0.696523478660483E+05    -0.386757055854609E+06     0.132286232072276E+06     0.424255671040688E+06     0.000000000000000E+00    -0.217137912782698E+05    -0.434695612442387E+06
     0.624000000000000E+02    -0.117040000000000E+02    -0.459692052718674E+05    -0.356575005977838E+06     0.128314224172977E+06     0.402816401667247E+06     0.181439846956346E+03     0.000000000000000E+00    -0.402725651096662E+06
     0.624000000000000E+02    -0.805600000000000E+01    -0.241238641551663E+05    -0.325188571245385E+06     0.120148068670233E+06     0.376552038884955E+06     0.179458276393748E+05     0.000000000000000E+00    -0.367258263039926E+06
     0.624000000000000E+02    -0.440800000000000E+01    -0.566275450306159E+04    -0.291624915558817E+06     0.108285251625380E+06     0.344387637725542E+06     0.307141453002725E+05     0.000000000000000E+00    -0.328001815362151E+06
     0.624000000000000E+02    -0.759999999999998E+00     0.786016445009434E+04    -0.254948849055896E+06     0.935161845312022E+05     0.305451253079557E+06     0.377393244593346E+05     0.000000000000000E+00    -0.284828009065136E+06
     0.650000000000000E+02    -0.190000000000000E+02    -0.957056389514556E+05    -0.412284236150571E+06     0.170004210343345E+06     0.475798517293146E+06     0.000000000000000E+00    -0.217086194313179E+05    -0.486281255670709E+06
     0.650000000000000E+02    -0.152000000000000E+02    -0.671816271563004E+05    -0.391895929048655E+06     0.170562987059899E+06     0.468020065496388E+06     0.594280720336977E+04     0.000000000000000E+00    -0.465020363408325E+06
     0.650000000000000E+02    -0.114000000000000E+02    -0.391034249800574E+05    -0.371214456662358E+06     0.165546195821527E+06     0.455005629498834E+06     0.293191547277155E+05     0.000000000000000E+00    -0.439637036370131E+06
     0.650000000000000E+02    -0.760000000000000E+01    -0.134553999271110E+05    -0.349011296746870E+06     0.155216236548181E+06     0.435396470738870E+06     0.473306909623030E+05     0.000000000000000E+00    -0.409797387636284E+06
     0.650000000000000E+02    -0.380000000000000E+01     0.777291218678271E+04    -0.324083768614248E+06     0.140194762581355E+06     0.408134164562837E+06     0.590697673859302E+05     0.000000000000000E+00    -0.375380623813396E+06
     0.650000000000000E+02     0.000000000000000E+00     0.225826067329535E+05    -0.295276035641149E+06     0.121462680684091E+06     0.372324538995557E+06     0.636825632328006E+05     0.000000000000000E+00    -0.336375992140996E+06
 zone I=    6 ,j=    6 ,f=point, T="    2"
     0.520000000000000E+02    -0.380000000000000E+01    -0.310967691634447E+05    -0.183474959115825E+06     0.261403421280199E+05     0.175995862689356E+06     0.000000000000000E+00    -0.267371479496119E+05    -0.187834580329658E+06
     0.486400000000000E+02    -0.380000000000000E+01    -0.360184821052883E+05    -0.164512843637388E+06     0.141593188149363E+05     0.151781958045396E+06     0.000000000000000E+00    -0.344767082840482E+05    -0.166054617458628E+06
     0.452800000000000E+02    -0.380000000000000E+01    -0.393909131841086E+05    -0.150852468397946E+06     0.656019643706027E+04     0.135996335644891E+06     0.000000000000000E+00    -0.390061336792543E+05    -0.151237247902800E+06
     0.419200000000000E+02    -0.380000000000000E+01    -0.414670252269801E+05    -0.141657510585106E+06     0.223888008928798E+04     0.126203354446240E+06     0.000000000000000E+00    -0.414170196453312E+05    -0.141707516166755E+06
     0.385600000000000E+02    -0.380000000000000E+01    -0.424816815060591E+05    -0.136151486497411E+06     0.263295518865650E+03     0.120657301588707E+06     0.000000000000000E+00    -0.424809414171635E+05    -0.136152226586307E+06
     0.352000000000000E+02    -0.380000000000000E+01    -0.426516457385834E+05    -0.133617751544344E+06    -0.139375658000556E+03     0.118211284086767E+06     0.000000000000000E+00    -0.426514321916994E+05    -0.133617965091228E+06
     0.546000000000000E+02    -0.304000000000000E+01    -0.237621276199845E+05    -0.190300353304557E+06     0.375602524116096E+05     0.191021568361241E+06     0.000000000000000E+00    -0.156829087053896E+05    -0.198379572219152E+06
     0.510720000000000E+02    -0.304000000000000E+01    -0.304843397524551E+05    -0.164184195054636E+06     0.211146346853634E+05     0.155621918396934E+06     0.000000000000000E+00    -0.272290562930127E+05    -0.167439478514079E+06
     0.475440000000000E+02    -0.304000000000000E+01    -0.351806396296195E+05    -0.144953849079663E+06     0.104384801818986E+05     0.132199138597362E+06     0.000000000000000E+00    -0.341968474816221E+05    -0.145937641227660E+06
     0.440160000000000E+02    -0.304000000000000E+01    -0.381778505907301E+05    -0.131543710365987E+06     0.411043121722608E+04     0.117430519144090E+06     0.000000000000000E+00    -0.379972382767198E+05    -0.131724322679998E+06
     0.404880000000000E+02    -0.304000000000000E+01    -0.397794116816007E+05    -0.122964418210988E+06     0.928676894320030E+03     0.108691236297227E+06     0.000000000000000E+00    -0.397690452304010E+05    -0.122974784662187E+06
     0.369600000000000E+02    -0.304000000000000E+01    -0.402653776546059E+05    -0.118302856223069E+06    -0.105338354571831E+03     0.104179607089251E+06     0.000000000000000E+00    -0.402652354646105E+05    -0.118302998413065E+06
     0.572000000000000E+02    -0.228000000000000E+01    -0.150054240465784E+05    -0.203732014312532E+06     0.522120942666631E+05     0.216455814205045E+06     0.000000000000000E+00    -0.152376447112118E+04    -0.217213673887989E+06
     0.535040000000000E+02    -0.228000000000000E+01    -0.239920567332479E+05    -0.168744881911259E+06     0.301875345685203E+05     0.166540622393616E+06     0.000000000000000E+00    -0.179488777485939E+05    -0.174788060895913E+06
     0.498080000000000E+02    -0.228000000000000E+01    -0.303665979773375E+05    -0.142572617591209E+06     0.156358418233665E+05     0.132864874391743E+06     0.000000000000000E+00    -0.282284946516891E+05    -0.144710720916858E+06
     0.461120000000000E+02    -0.228000000000000E+01    -0.345460145468278E+05    -0.123872599264687E+06     0.675013907573329E+04     0.111333896393387E+06     0.000000000000000E+00    -0.340388069983958E+05    -0.124379806813119E+06
     0.424160000000000E+02    -0.228000000000000E+01    -0.369174391309003E+05    -0.111398269797460E+06     0.200059035096819E+04     0.983460221187072E+05     0.000000000000000E+00    -0.368637410419848E+05    -0.111451967886376E+06
     0.387200000000000E+02    -0.228000000000000E+01    -0.378381703399370E+05    -0.103999137008760E+06     0.113842843937415E+03     0.911726354367159E+05     0.000000000000000E+00    -0.378379744517057E+05    -0.103999332896991E+06
     0.598000000000000E+02    -0.152000000000000E+01    -0.456209024809811E+04    -0.224876637921632E+06     0.706580727677944E+05     0.254051367198167E+06     0.161515197144254E+05     0.000000000000000E+00    -0.245590247884156E+06
     0.559360000000000E+02    -0.152000000000000E+01    -0.163567968384613E+05    -0.179030726379083E+06     0.417578034260118E+05     0.186070736582377E+06     0.000000000000000E+00    -0.626391973527749E+04    -0.189123603482267E+06
     0.520720000000000E+02    -0.152000000000000E+01    -0.248260572337580E+05    -0.144326036483955E+06     0.223990320747806E+05     0.139170547877526E+06     0.000000000000000E+00    -0.207655626255706E+05    -0.148386531092142E+06
     0.482080000000000E+02    -0.152000000000000E+01    -0.304958141518247E+05    -0.119088101098138E+06     0.103107448494537E+05     0.108624197503190E+06     0.000000000000000E+00    -0.293116345616497E+05    -0.120272280688313E+06
     0.443440000000000E+02    -0.152000000000000E+01    -0.338543789746388E+05    -0.101762261635142E+06     0.356792286088628E+04     0.899709337440087E+05     0.000000000000000E+00    -0.336674327153827E+05    -0.101949207894398E+06
     0.404800000000000E+02    -0.152000000000000E+01    -0.353524317483192E+05    -0.909136680600962E+05     0.565867656617502E+03     0.793853314170284E+05     0.000000000000000E+00    -0.353466692235921E+05    -0.909194305848233E+05
     0.624000000000000E+02    -0.759999999999998E+00     0.786016445009434E+04    -0.254948849055896E+06     0.935161845312022E+05     0.305451253079557E+06     0.377393244593346E+05     0.000000000000000E+00    -0.284828009065136E+06
     0.583680000000000E+02    -0.759999999999998E+00    -0.737420196996288E+04    -0.195959456254067E+06     0.562431669217667E+05     0.215637019590586E+06     0.812567226553711E+04     0.000000000000000E+00    -0.211459330489567E+06
     0.543360000000000E+02    -0.759999999999998E+00    -0.184231976509823E+05    -0.150892222127424E+06     0.309996594075614E+05     0.152351226867866E+06     0.000000000000000E+00    -0.115277605194693E+05    -0.157787659258937E+06
     0.503040000000000E+02    -0.759999999999998E+00    -0.259433761906146E+05    -0.117678243192641E+06     0.149605419175987E+05     0.110180353057528E+06     0.000000000000000E+00    -0.235651956895437E+05    -0.120056423693712E+06
     0.462720000000000E+02    -0.759999999999998E+00    -0.305443146088252E+05    -0.943966465393022E+05     0.572873681054655E+04     0.840170008939135E+05     0.000000000000000E+00    -0.300344127068813E+05    -0.949065484412461E+05
     0.422400000000000E+02    -0.759999999999998E+00    -0.327886133478940E+05    -0.792745898299049E+05     0.130344600892319E+04     0.690314913516016E+05     0.000000000000000E+00    -0.327520939938128E+05    -0.793111091839860E+05
     0.650000000000000E+02     0.000000000000000E+00     0.225826067329535E+05    -0.295276035641149E+06     0.121462680684091E+06     0.372324538995557E+06     0.636825632328006E+05     0.000000000000000E+00    -0.336375992140996E+06
     0.608000000000000E+02     0.000000000000000E+00     0.318048109210022E+04    -0.220534368814463E+06     0.741009581292252E+05     0.256553668197418E+06     0.254984470003630E+05     0.000000000000000E+00    -0.242852334722725E+06
     0.566000000000000E+02     0.000000000000000E+00    -0.110085347993215E+05    -0.163012862729778E+06     0.417352751309741E+05     0.173566552228422E+06     0.000000000000000E+00    -0.303362756253686E+03    -0.173718034772845E+06
     0.524000000000000E+02     0.000000000000000E+00    -0.207963074984773E+05    -0.120177122465645E+06     0.208840490618678E+05     0.116979559292517E+06     0.000000000000000E+00    -0.165860646974578E+05    -0.124387365266664E+06
     0.482000000000000E+02     0.000000000000000E+00    -0.269366143029064E+05    -0.896740897048745E+05     0.859066266415593E+04     0.810734583090234E+05     0.000000000000000E+00    -0.257815577916147E+05    -0.908291462161662E+05
     0.440000000000000E+02     0.000000000000000E+00    -0.301251432505208E+05    -0.693320427345386E+05     0.238450902237357E+04     0.603562452130053E+05     0.000000000000000E+00    -0.299806532249173E+05    -0.694765327601422E+05
 zone I=    6 ,j=    6 ,f=point, T="    2"
     0.000000000000000E+00    -0.190000000000000E+02    -0.943891116079664E+05    -0.480225787236655E+06     0.684264689952710E-10     0.440679050657848E+06     0.000000000000000E+00    -0.943891116079664E+05    -0.480225787236655E+06
     0.000000000000000E+00    -0.159600000000000E+02    -0.832015710373927E+05    -0.415533452465951E+06     0.117088092385249E-09     0.380811653547530E+06     0.000000000000000E+00    -0.832015710373927E+05    -0.415533452465951E+06
     0.000000000000000E+00    -0.129200000000000E+02    -0.719857210324904E+05    -0.350793055779781E+06     0.107608443198330E-09     0.320913728223624E+06     0.000000000000000E+00    -0.719857210324904E+05    -0.350793055779781E+06
     0.000000000000000E+00    -0.988000000000000E+01    -0.601839346765255E+05    -0.286070954694757E+06     0.154998994162288E-10     0.261231356201581E+06     0.000000000000000E+00    -0.601839346765255E+05    -0.286070954694757E+06
     0.000000000000000E+00    -0.684000000000000E+01    -0.472400137829286E+05    -0.221440650378321E+06    -0.163250808030742E-09     0.202006735447640E+06     0.000000000000000E+00    -0.472400137829286E+05    -0.221440650378321E+06
     0.000000000000000E+00    -0.380000000000000E+01    -0.326005653156409E+05    -0.156989669750478E+06    -0.402553081990739E-09     0.143494255232334E+06     0.000000000000000E+00    -0.326005653156409E+05    -0.156989669750478E+06
     0.704000000000000E+01    -0.159600000000000E+02    -0.830727342918051E+05    -0.414380859729883E+06     0.172100200402363E+04     0.379733736427167E+06     0.000000000000000E+00    -0.830637946741088E+05    -0.414389799347579E+06
     0.636800000000000E+01    -0.135280000000000E+02    -0.742652372048497E+05    -0.362656465403521E+06     0.154514751846305E+04     0.331827412025536E+06     0.000000000000000E+00    -0.742569588243416E+05    -0.362664743784030E+06
     0.569600000000000E+01    -0.110960000000000E+02    -0.651137400557385E+05    -0.310966747261822E+06     0.144856706359417E+04     0.284074293344316E+06     0.000000000000000E+00    -0.651052053881295E+05    -0.310975281929431E+06
     0.502400000000000E+01    -0.866400000000000E+01    -0.553406720768665E+05    -0.259339012369143E+06     0.141240679752689E+04     0.236586776386906E+06     0.000000000000000E+00    -0.553308935789638E+05    -0.259348790867046E+06
     0.435200000000000E+01    -0.623200000000000E+01    -0.446658497071566E+05    -0.207806423271873E+06     0.141711871148817E+04     0.189480135870215E+06     0.000000000000000E+00    -0.446535408505024E+05    -0.207818732128527E+06
     0.368000000000000E+01    -0.380000000000000E+01    -0.328086202641009E+05    -0.156409563395243E+06     0.143955191599465E+04     0.142881041580655E+06     0.000000000000000E+00    -0.327918564058373E+05    -0.156426327253507E+06
     0.140800000000000E+02    -0.129200000000000E+02    -0.721185958760270E+05    -0.345570461622677E+06     0.244803144723319E+04     0.315778336689966E+06     0.000000000000000E+00    -0.720966820458386E+05    -0.345592375452865E+06
     0.127360000000000E+02    -0.110960000000000E+02    -0.654769047718833E+05    -0.307242713586165E+06     0.247097653407202E+04     0.280332526450386E+06     0.000000000000000E+00    -0.654516527009027E+05    -0.307267965657146E+06
     0.113920000000000E+02    -0.927200000000000E+01    -0.583987832576605E+05    -0.268989068944729E+06     0.252951780552003E+04     0.245104259740074E+06     0.000000000000000E+00    -0.583684041857125E+05    -0.269019448016677E+06
     0.100480000000000E+02    -0.744800000000000E+01    -0.507717730683597E+05    -0.230814193629458E+06     0.260381046315598E+04     0.210129623204809E+06     0.000000000000000E+00    -0.507341240995108E+05    -0.230851842598307E+06
     0.870400000000000E+01    -0.562400000000000E+01    -0.424825853259772E+05    -0.192721303122642E+06     0.266912352830692E+04     0.175443279125919E+06     0.000000000000000E+00    -0.424351809462102E+05    -0.192768707502409E+06
     0.736000000000000E+01    -0.380000000000000E+01    -0.334197632781768E+05    -0.154712295930065E+06     0.269468704878078E+04     0.141081929382143E+06     0.000000000000000E+00    -0.333599264713369E+05    -0.154772132736905E+06
     0.211200000000000E+02    -0.988000000000000E+01    -0.617863449867775E+05    -0.273902765839335E+06     0.201580410470543E+04     0.248855414200387E+06     0.000000000000000E+00    -0.617671899432569E+05    -0.273921920882855E+06
     0.191040000000000E+02    -0.866400000000000E+01    -0.571391592881377E+05    -0.249382642118529E+06     0.248462952815454E+04     0.226330712352838E+06     0.000000000000000E+00    -0.571070523321843E+05    -0.249414749074483E+06
     0.170880000000000E+02    -0.744800000000000E+01    -0.521024049407615E+05    -0.224952099327067E+06     0.291783009302868E+04     0.204017409595867E+06     0.000000000000000E+00    -0.520531638483961E+05    -0.225001340419432E+06
     0.150720000000000E+02    -0.623200000000000E+01    -0.466459511656798E+05    -0.200601074158935E+06     0.327376599670121E+04     0.181910858489186E+06     0.000000000000000E+00    -0.465763678886804E+05    -0.200670657435935E+06
     0.130560000000000E+02    -0.501600000000000E+01    -0.407478144232619E+05    -0.176305002066351E+06     0.351359206697064E+04     0.159990095366667E+06     0.000000000000000E+00    -0.406568045209081E+05    -0.176396011968705E+06
     0.110400000000000E+02    -0.380000000000000E+01    -0.343949288639546E+05    -0.152027022156524E+06     0.360110528812512E+04     0.138221459487131E+06     0.000000000000000E+00    -0.342847903088019E+05    -0.152137160711676E+06
     0.281600000000000E+02    -0.684000000000000E+01    -0.520744344547743E+05    -0.201532645535022E+06     0.785461496855068E+03     0.181202390296066E+06     0.000000000000000E+00    -0.520703066606578E+05    -0.201536773329139E+06
     0.254720000000000E+02    -0.623200000000000E+01    -0.494005504987044E+05    -0.190403591220960E+06     0.162094200487900E+04     0.171160106552658E+06     0.000000000000000E+00    -0.493819189441302E+05    -0.190422222775534E+06
     0.227840000000000E+02    -0.562400000000000E+01    -0.463827631400765E+05    -0.179661442545861E+06     0.248272094015437E+04     0.161601027932866E+06     0.000000000000000E+00    -0.463365309454124E+05    -0.179707674740525E+06
     0.200960000000000E+02    -0.501600000000000E+01    -0.430568459797649E+05    -0.169192828571246E+06     0.323389161866690E+04     0.152402656899397E+06     0.000000000000000E+00    -0.429739894499941E+05    -0.169275685101017E+06
     0.174080000000000E+02    -0.440800000000000E+01    -0.394679178313308E+05    -0.158872725820514E+06     0.377381652007260E+04     0.143424575762450E+06     0.000000000000000E+00    -0.393487643916613E+05    -0.158991879260183E+06
     0.147200000000000E+02    -0.380000000000000E+01    -0.356690078649108E+05    -0.148569000077250E+06     0.403473986974697E+04     0.134516000725688E+06     0.000000000000000E+00    -0.355250008770856E+05    -0.148713007065075E+06
     0.352000000000000E+02    -0.380000000000000E+01    -0.426516457385834E+05    -0.133617751544344E+06    -0.139375658000556E+03     0.118211284086767E+06     0.000000000000000E+00    -0.426514321916994E+05    -0.133617965091228E+06
     0.318400000000000E+02    -0.380000000000000E+01    -0.421755820868722E+05    -0.133399500246323E+06     0.404539260465581E+03     0.118103750039482E+06     0.000000000000000E+00    -0.421737881626646E+05    -0.133401294170531E+06
     0.284800000000000E+02    -0.380000000000000E+01    -0.412340551583264E+05    -0.134899766234707E+06     0.140243927822040E+04     0.119756546130049E+06     0.000000000000000E+00    -0.412130614011802E+05    -0.134920759991853E+06
     0.251200000000000E+02    -0.380000000000000E+01    -0.399895300054283E+05    -0.137581422251791E+06     0.248268491801044E+04     0.122655962018809E+06     0.000000000000000E+00    -0.399264126658442E+05    -0.137644539591375E+06
     0.217600000000000E+02    -0.380000000000000E+01    -0.385863721257418E+05    -0.140967180150808E+06     0.338183343798252E+04     0.126315289315616E+06     0.000000000000000E+00    -0.384747853351041E+05    -0.141078766941446E+06
     0.184000000000000E+02    -0.380000000000000E+01    -0.371508474619125E+05    -0.144639590895930E+06     0.393187404829381E+04     0.130283123404173E+06     0.000000000000000E+00    -0.370072137900812E+05    -0.144783224567761E+06
 zone I=    6 ,j=    6 ,f=point, T="    2"
     0.352000000000000E+02    -0.380000000000000E+01    -0.426516457385834E+05    -0.133617751544344E+06    -0.139375658000556E+03     0.118211284086767E+06     0.000000000000000E+00    -0.426514321916994E+05    -0.133617965091228E+06
     0.318400000000000E+02    -0.380000000000000E+01    -0.421755820868722E+05    -0.133399500246323E+06     0.404539260465581E+03     0.118103750039482E+06     0.000000000000000E+00    -0.421737881626646E+05    -0.133401294170531E+06
     0.284800000000000E+02    -0.380000000000000E+01    -0.412340551583264E+05    -0.134899766234707E+06     0.140243927822040E+04     0.119756546130049E+06     0.000000000000000E+00    -0.412130614011802E+05    -0.134920759991853E+06
     0.251200000000000E+02    -0.380000000000000E+01    -0.399895300054283E+05    -0.137581422251791E+06     0.248268491801044E+04     0.122655962018809E+06     0.000000000000000E+00    -0.399264126658442E+05    -0.137644539591375E+06
     0.217600000000000E+02    -0.380000000000000E+01    -0.385863721257418E+05    -0.140967180150808E+06     0.338183343798252E+04     0.126315289315616E+06     0.000000000000000E+00    -0.384747853351041E+05    -0.141078766941446E+06
     0.184000000000000E+02    -0.380000000000000E+01    -0.371508474619125E+05    -0.144639590895930E+06     0.393187404829381E+04     0.130283123404173E+06     0.000000000000000E+00    -0.370072137900812E+05    -0.144783224567761E+06
     0.369600000000000E+02    -0.304000000000000E+01    -0.402653776546059E+05    -0.118302856223069E+06    -0.105338354571831E+03     0.104179607089251E+06     0.000000000000000E+00    -0.402652354646105E+05    -0.118302998413065E+06
     0.334320000000000E+02    -0.304000000000000E+01    -0.398924189686818E+05    -0.116722152321666E+06     0.196793774381855E+03     0.102758226501832E+06     0.000000000000000E+00    -0.398919148990481E+05    -0.116722656391300E+06
     0.299040000000000E+02    -0.304000000000000E+01    -0.388938217893254E+05    -0.117461678737239E+06     0.119415399890630E+04     0.103661563544972E+06     0.000000000000000E+00    -0.388756760162395E+05    -0.117479824510325E+06
     0.263760000000000E+02    -0.304000000000000E+01    -0.374794879885950E+05    -0.119837052011277E+06     0.240020399293059E+04     0.106261388287649E+06     0.000000000000000E+00    -0.374095964801096E+05    -0.119906943519763E+06
     0.228480000000000E+02    -0.304000000000000E+01    -0.358359351451099E+05    -0.123240132996297E+06     0.346649492889793E+04     0.109963489289017E+06     0.000000000000000E+00    -0.356986677706023E+05    -0.123377400370805E+06
     0.193200000000000E+02    -0.304000000000000E+01    -0.341262965440507E+05    -0.127139026855843E+06     0.416637602007571E+04     0.114202575278672E+06     0.000000000000000E+00    -0.339400424849765E+05    -0.127325280914918E+06
     0.387200000000000E+02    -0.228000000000000E+01    -0.378381703399370E+05    -0.103999137008760E+06     0.113842843937415E+03     0.911726354367159E+05     0.000000000000000E+00    -0.378379744517057E+05    -0.103999332896991E+06
     0.350240000000000E+02    -0.228000000000000E+01    -0.376356727055205E+05    -0.100620773671281E+06     0.524691077286034E+02     0.880571502375445E+05     0.000000000000000E+00    -0.376356289966860E+05    -0.100620817380116E+06
     0.313280000000000E+02    -0.228000000000000E+01    -0.366075766804345E+05    -0.100304817511184E+06     0.994409242353497E+03     0.879330503117685E+05     0.000000000000000E+00    -0.365920562458835E+05    -0.100320337945735E+06
     0.276320000000000E+02    -0.228000000000000E+01    -0.350216786386629E+05    -0.102188971208091E+06     0.231241308345065E+04     0.900350835173603E+05     0.000000000000000E+00    -0.349421617914712E+05    -0.102268488055283E+06
     0.239360000000000E+02    -0.228000000000000E+01    -0.331159408753908E+05    -0.105507002395089E+06     0.355348239098813E+04     0.936606168702370E+05     0.000000000000000E+00    -0.329419282769539E+05    -0.105681014993526E+06
     0.202400000000000E+02    -0.228000000000000E+01    -0.310984916070036E+05    -0.109588743658727E+06     0.441831303796621E+04     0.981189521058012E+05     0.000000000000000E+00    -0.308505624599969E+05    -0.109836672805734E+06
     0.404800000000000E+02    -0.152000000000000E+01    -0.353524317483192E+05    -0.909136680600962E+05     0.565867656617502E+03     0.793853314170284E+05     0.000000000000000E+00    -0.353466692235921E+05    -0.909194305848233E+05
     0.366160000000000E+02    -0.152000000000000E+01    -0.354030211831257E+05    -0.852272788897494E+05    -0.547331794727317E+01     0.741603661385355E+05     0.000000000000000E+00    -0.354030205818682E+05    -0.852272794910069E+05
     0.327520000000000E+02    -0.152000000000000E+01    -0.343815646534593E+05    -0.835078611924697E+05     0.812818741645038E+03     0.727083624022719E+05     0.000000000000000E+00    -0.343681198471034E+05    -0.835213059988257E+05
     0.288880000000000E+02    -0.152000000000000E+01    -0.326258481978624E+05    -0.846799905882447E+05     0.222295946007710E+04     0.740757376244754E+05     0.000000000000000E+00    -0.325310897526801E+05    -0.847747490334270E+05
     0.250240000000000E+02    -0.152000000000000E+01    -0.304360265190184E+05    -0.877880512486813E+05     0.364478674344297E+04     0.774662998191162E+05     0.000000000000000E+00    -0.302053241699094E+05    -0.880187535977903E+05
     0.211600000000000E+02    -0.152000000000000E+01    -0.280746229837519E+05    -0.919962358970060E+05     0.469008624042993E+04     0.820653578740302E+05     0.000000000000000E+00    -0.277323327111079E+05    -0.923385261696500E+05
     0.422400000000000E+02    -0.759999999999998E+00    -0.327886133478940E+05    -0.792745898299049E+05     0.130344600892319E+04     0.690314913516016E+05     0.000000000000000E+00    -0.327520939938128E+05    -0.793111091839860E+05
     0.382080000000000E+02    -0.759999999999998E+00    -0.331918962724154E+05    -0.706872612998598E+05     0.483881332926267E+02     0.612548256680378E+05     0.000000000000000E+00    -0.331918338271627E+05    -0.706873237451125E+05
     0.341760000000000E+02    -0.759999999999998E+00    -0.322228106692987E+05    -0.671578797574901E+05     0.660035636459631E+03     0.581874697653887E+05     0.000000000000000E+00    -0.322103449247624E+05    -0.671703455020263E+05
     0.301440000000000E+02    -0.759999999999998E+00    -0.303030272477675E+05    -0.673576945840316E+05     0.213585193766504E+04     0.585480658623903E+05     0.000000000000000E+00    -0.301803218717065E+05    -0.674803999600927E+05
     0.261120000000000E+02    -0.759999999999998E+00    -0.278072401393601E+05    -0.701059857336330E+05     0.374252855678093E+04     0.614870508265413E+05     0.000000000000000E+00    -0.274786593628766E+05    -0.704345665101166E+05
     0.220800000000000E+02    -0.759999999999998E+00    -0.250631668979295E+05    -0.743700637333557E+05     0.498422224850578E+04     0.661033040729857E+05     0.000000000000000E+00    -0.245643790272459E+05    -0.748688516040393E+05
     0.440000000000000E+02     0.000000000000000E+00    -0.301251432505208E+05    -0.693320427345386E+05     0.238450902237357E+04     0.603562452130053E+05     0.000000000000000E+00    -0.299806532249173E+05    -0.694765327601422E+05
     0.398000000000000E+02     0.000000000000000E+00    -0.309994931196060E+05    -0.571605964459689E+05     0.242036535905707E+03     0.495633795109470E+05     0.000000000000000E+00    -0.309972540446509E+05    -0.571628355209240E+05
     0.356000000000000E+02     0.000000000000000E+00    -0.301391734288204E+05    -0.513507023347576E+05     0.547793891552232E+03     0.447045514050781E+05     0.000000000000000E+00    -0.301250359152229E+05    -0.513648398483551E+05
     0.314000000000000E+02     0.000000000000000E+00    -0.280656044371955E+05    -0.502746485007575E+05     0.205547503609296E+04     0.437824733098822E+05     0.000000000000000E+00    -0.278769698164585E+05    -0.504632831214945E+05
     0.272000000000000E+02     0.000000000000000E+00    -0.252421171441360E+05    -0.524860596480817E+05     0.384896414885244E+04     0.459514444200261E+05     0.000000000000000E+00    -0.247087845912191E+05    -0.530193922009986E+05
     0.230000000000000E+02     0.000000000000000E+00    -0.220739532894199E+05    -0.567198970851040E+05     0.530338061426502E+04     0.503661723595339E+05     0.000000000000000E+00    -0.212803250284797E+05    -0.575135253460441E+05
 zone I=    6 ,j=    6 ,f=point, T="    2"
     0.184000000000000E+02    -0.380000000000000E+01    -0.371508474619125E+05    -0.144639590895930E+06     0.393187404829381E+04     0.130283123404173E+06     0.000000000000000E+00    -0.370072137900812E+05    -0.144783224567761E+06
     0.147200000000000E+02    -0.380000000000000E+01    -0.356690078649108E+05    -0.148569000077250E+06     0.403473986974697E+04     0.134516000725688E+06     0.000000000000000E+00    -0.355250008770856E+05    -0.148713007065075E+06
     0.110400000000000E+02    -0.380000000000000E+01    -0.343949288639546E+05    -0.152027022156524E+06     0.360110528812512E+04     0.138221459487131E+06     0.000000000000000E+00    -0.342847903088019E+05    -0.152137160711676E+06
     0.736000000000000E+01    -0.380000000000000E+01    -0.334197632781768E+05    -0.154712295930065E+06     0.269468704878078E+04     0.141081929382143E+06     0.000000000000000E+00    -0.333599264713369E+05    -0.154772132736905E+06
     0.368000000000000E+01    -0.380000000000000E+01    -0.328086202641009E+05    -0.156409563395243E+06     0.143955191599465E+04     0.142881041580655E+06     0.000000000000000E+00    -0.327918564058373E+05    -0.156426327253507E+06
     0.000000000000000E+00    -0.380000000000000E+01    -0.326005653156409E+05    -0.156989669750478E+06    -0.402553081990739E-09     0.143494255232334E+06     0.000000000000000E+00    -0.326005653156409E+05    -0.156989669750478E+06
     0.193200000000000E+02    -0.304000000000000E+01    -0.341262965440507E+05    -0.127139026855843E+06     0.416637602007571E+04     0.114202575278672E+06     0.000000000000000E+00    -0.339400424849765E+05    -0.127325280914918E+06
     0.154560000000000E+02    -0.304000000000000E+01    -0.323427871115908E+05    -0.131440877802173E+06     0.437168172220943E+04     0.118865178712169E+06     0.000000000000000E+00    -0.321503055833529E+05    -0.131633359330411E+06
     0.115920000000000E+02    -0.304000000000000E+01    -0.307985894115763E+05    -0.135298736442136E+06     0.395648886226814E+04     0.123021349258357E+06     0.000000000000000E+00    -0.306490065685422E+05    -0.135448319285170E+06
     0.772800000000000E+01    -0.304000000000000E+01    -0.296114712167498E+05    -0.138328621847786E+06     0.298606119490689E+04     0.126262751950086E+06     0.000000000000000E+00    -0.295295168526939E+05    -0.138410576211842E+06
     0.386400000000000E+01    -0.304000000000000E+01    -0.288655523647847E+05    -0.140256261927733E+06     0.160268609123534E+04     0.128312783689787E+06     0.000000000000000E+00    -0.288424977384042E+05    -0.140279316554114E+06
     0.000000000000000E+00    -0.304000000000000E+01    -0.286113047582850E+05    -0.140917093427141E+06    -0.465136664264693E-09     0.129013224416063E+06     0.000000000000000E+00    -0.286113047582850E+05    -0.140917093427141E+06
     0.202400000000000E+02    -0.228000000000000E+01    -0.310984916070036E+05    -0.109588743658727E+06     0.441831303796621E+04     0.981189521058012E+05     0.000000000000000E+00    -0.308505624599969E+05    -0.109836672805734E+06
     0.161920000000000E+02    -0.228000000000000E+01    -0.289709541960819E+05    -0.114258572432909E+06     0.474038080404115E+04     0.103206450009078E+06     0.000000000000000E+00    -0.287082875061164E+05    -0.114521239122875E+06
     0.121440000000000E+02    -0.228000000000000E+01    -0.271158693764876E+05    -0.118535730110007E+06     0.434934300938902E+04     0.107835711452587E+06     0.000000000000000E+00    -0.269094135750465E+05    -0.118742185911448E+06
     0.809600000000000E+01    -0.228000000000000E+01    -0.256834872732121E+05    -0.121936415217136E+06     0.331008268371019E+04     0.111486539314249E+06     0.000000000000000E+00    -0.255697897423604E+05    -0.122050112747988E+06
     0.404800000000000E+01    -0.228000000000000E+01    -0.247811294041066E+05    -0.124115055273666E+06     0.178467716568908E+04     0.113809029923600E+06     0.000000000000000E+00    -0.247490754497112E+05    -0.124147109228061E+06
     0.000000000000000E+00    -0.228000000000000E+01    -0.244731886798816E+05    -0.124864306791218E+06    -0.526156455851212E-09     0.114604556345411E+06     0.000000000000000E+00    -0.244731886798816E+05    -0.124864306791218E+06
     0.211600000000000E+02    -0.152000000000000E+01    -0.280746229837519E+05    -0.919962358970060E+05     0.469008624042993E+04     0.820653578740302E+05     0.000000000000000E+00    -0.277323327111079E+05    -0.923385261696500E+05
     0.169280000000000E+02    -0.152000000000000E+01    -0.255566226016798E+05    -0.970232389775122E+05     0.514426907093628E+04     0.875582895628612E+05     0.000000000000000E+00    -0.251882297448143E+05    -0.973916318343777E+05
     0.126960000000000E+02    -0.152000000000000E+01    -0.233454863902709E+05    -0.101737635292854E+06     0.478361159709554E+04     0.926773565085240E+05     0.000000000000000E+00    -0.230546618457809E+05    -0.102028459837344E+06
     0.846400000000000E+01    -0.152000000000000E+01    -0.216307329518732E+05    -0.105536046070154E+06     0.367020754326797E+04     0.967643264279186E+05     0.000000000000000E+00    -0.214704958111045E+05    -0.105696283210923E+06
     0.423200000000000E+01    -0.152000000000000E+01    -0.205477327167353E+05    -0.107987486471642E+06     0.198753607815083E+04     0.993803775625543E+05     0.000000000000000E+00    -0.205025786466202E+05    -0.108032640541757E+06
     0.288657986402541E-14    -0.152000000000000E+01    -0.201777079430064E+05    -0.108833365594655E+06    -0.582543690427690E-09     0.100278778906954E+06     0.000000000000000E+00    -0.201777079430064E+05    -0.108833365594655E+06
     0.220800000000000E+02    -0.759999999999998E+00    -0.250631668979295E+05    -0.743700637333557E+05     0.498422224850578E+04     0.661033040729857E+05     0.000000000000000E+00    -0.245643790272459E+05    -0.748688516040393E+05
     0.176640000000000E+02    -0.759999999999998E+00    -0.221038937294400E+05    -0.797363443177638E+05     0.558698473829023E+04     0.719557241460826E+05     0.000000000000000E+00    -0.215672786385594E+05    -0.802729594086445E+05
     0.132480000000000E+02    -0.759999999999998E+00    -0.194867927846682E+05    -0.849041317963700E+05     0.526350141691032E+04     0.775696513318669E+05     0.000000000000000E+00    -0.190659964329355E+05    -0.853249281481027E+05
     0.883200000000000E+01    -0.759999999999998E+00    -0.174484470905741E+05    -0.891279159011244E+05     0.407013521820782E+04     0.821144809150009E+05     0.000000000000000E+00    -0.172180752728956E+05    -0.893582877188029E+05
     0.441600000000000E+01    -0.759999999999998E+00    -0.161578445235578E+05    -0.918751892977055E+05     0.221341923512390E+04     0.850430420318039E+05     0.000000000000000E+00    -0.160931955948212E+05    -0.919398382264421E+05
     0.000000000000000E+00    -0.759999999999998E+00    -0.157163778094592E+05    -0.928264475855205E+05    -0.636582945817461E-09     0.860514868078004E+05     0.000000000000000E+00    -0.157163778094592E+05    -0.928264475855205E+05
     0.230000000000000E+02     0.000000000000000E+00    -0.220739532894199E+05    -0.567198970851040E+05     0.530338061426502E+04     0.503661723595339E+05     0.000000000000000E+00    -0.212803250284797E+05    -0.575135253460441E+05
     0.184000000000000E+02     0.000000000000000E+00    -0.186179081640526E+05    -0.623996792112950E+05     0.607238418922885E+04     0.564731486839558E+05     0.000000000000000E+00    -0.177912956135045E+05    -0.632262917618431E+05
     0.138000000000000E+02     0.000000000000000E+00    -0.155398082426538E+05    -0.680349486115310E+05     0.579349669794680E+04     0.625594407706581E+05     0.000000000000000E+00    -0.149080267872900E+05    -0.686667300668949E+05
     0.920000000000000E+01     0.000000000000000E+00    -0.131322021431418E+05    -0.727124594759130E+05     0.451382165827354E+04     0.675707446894736E+05     0.000000000000000E+00    -0.127921739575874E+05    -0.730524876614674E+05
     0.460000000000000E+01     0.000000000000000E+00    -0.116040531640296E+05    -0.757798933687989E+05     0.246463622981245E+04     0.708245414573228E+05     0.000000000000000E+00    -0.115095394205671E+05    -0.758744071122614E+05
    -0.288657986402541E-14     0.000000000000000E+00    -0.110807392844248E+05    -0.768458592288036E+05    -0.683581637787414E-09     0.719483143131269E+05     0.000000000000000E+00    -0.110807392844248E+05    -0.768458592288036E+05
 zone I=    6 ,j=    6 ,f=point, T="    2"
     0.000000000000000E+00    -0.190000000000000E+02    -0.943891116079664E+05    -0.480225787236655E+06     0.684264689952710E-10     0.440679050657848E+06     0.000000000000000E+00    -0.943891116079664E+05    -0.480225787236655E+06
    -0.704000000000000E+01    -0.159600000000000E+02    -0.830727342918049E+05    -0.414380859729882E+06    -0.172100200402346E+04     0.379733736427166E+06     0.000000000000000E+00    -0.830637946741087E+05    -0.414389799347578E+06
    -0.140800000000000E+02    -0.129200000000000E+02    -0.721185958760275E+05    -0.345570461622676E+06    -0.244803144723326E+04     0.315778336689965E+06     0.000000000000000E+00    -0.720966820458390E+05    -0.345592375452865E+06
    -0.211200000000000E+02    -0.988000000000000E+01    -0.617863449867792E+05    -0.273902765839334E+06    -0.201580410470597E+04     0.248855414200386E+06     0.000000000000000E+00    -0.617671899432587E+05    -0.273921920882855E+06
    -0.281600000000000E+02    -0.684000000000000E+01    -0.520744344547778E+05    -0.201532645535023E+06    -0.785461496856233E+03     0.181202390296066E+06     0.000000000000000E+00    -0.520703066606613E+05    -0.201536773329139E+06
    -0.352000000000000E+02    -0.380000000000000E+01    -0.426516457385876E+05    -0.133617751544346E+06     0.139375657998812E+03     0.118211284086768E+06     0.000000000000000E+00    -0.426514321917037E+05    -0.133617965091230E+06
     0.000000000000000E+00    -0.159600000000000E+02    -0.832015710373927E+05    -0.415533452465951E+06     0.117088092385249E-09     0.380811653547530E+06     0.000000000000000E+00    -0.832015710373927E+05    -0.415533452465951E+06
    -0.636800000000000E+01    -0.135280000000000E+02    -0.742652372048498E+05    -0.362656465403521E+06    -0.154514751846288E+04     0.331827412025535E+06     0.000000000000000E+00    -0.742569588243417E+05    -0.362664743784029E+06
    -0.127360000000000E+02    -0.110960000000000E+02    -0.654769047718841E+05    -0.307242713586164E+06    -0.247097653407211E+04     0.280332526450384E+06     0.000000000000000E+00    -0.654516527009035E+05    -0.307267965657145E+06
    -0.191040000000000E+02    -0.866400000000000E+01    -0.571391592881397E+05    -0.249382642118529E+06    -0.248462952815508E+04     0.226330712352836E+06     0.000000000000000E+00    -0.571070523321863E+05    -0.249414749074482E+06
    -0.254720000000000E+02    -0.623200000000000E+01    -0.494005504987078E+05    -0.190403591220960E+06    -0.162094200488008E+04     0.171160106552658E+06     0.000000000000000E+00    -0.493819189441335E+05    -0.190422222775534E+06
    -0.318400000000000E+02    -0.380000000000000E+01    -0.421755820868763E+05    -0.133399500246324E+06    -0.404539260467175E+03     0.118103750039483E+06     0.000000000000000E+00    -0.421737881626687E+05    -0.133401294170532E+06
     0.000000000000000E+00    -0.129200000000000E+02    -0.719857210324904E+05    -0.350793055779781E+06     0.107608443198330E-09     0.320913728223624E+06     0.000000000000000E+00    -0.719857210324904E+05    -0.350793055779781E+06
    -0.569600000000000E+01    -0.110960000000000E+02    -0.651137400557389E+05    -0.310966747261822E+06    -0.144856706359409E+04     0.284074293344316E+06     0.000000000000000E+00    -0.651052053881299E+05    -0.310975281929431E+06
    -0.113920000000000E+02    -0.927200000000000E+01    -0.583987832576616E+05    -0.268989068944728E+06    -0.252951780552023E+04     0.245104259740073E+06     0.000000000000000E+00    -0.583684041857136E+05    -0.269019448016676E+06
    -0.170880000000000E+02    -0.744800000000000E+01    -0.521024049407636E+05    -0.224952099327066E+06    -0.291783009302927E+04     0.204017409595866E+06     0.000000000000000E+00    -0.520531638483982E+05    -0.225001340419432E+06
    -0.227840000000000E+02    -0.562400000000000E+01    -0.463827631400797E+05    -0.179661442545860E+06    -0.248272094015539E+04     0.161601027932865E+06     0.000000000000000E+00    -0.463365309454156E+05    -0.179707674740525E+06
    -0.284800000000000E+02    -0.380000000000000E+01    -0.412340551583302E+05    -0.134899766234708E+06    -0.140243927822185E+04     0.119756546130049E+06     0.000000000000000E+00    -0.412130614011840E+05    -0.134920759991854E+06
     0.000000000000000E+00    -0.988000000000000E+01    -0.601839346765255E+05    -0.286070954694757E+06     0.154998994162288E-10     0.261231356201581E+06     0.000000000000000E+00    -0.601839346765255E+05    -0.286070954694757E+06
    -0.502400000000000E+01    -0.866400000000000E+01    -0.553406720768670E+05    -0.259339012369143E+06    -0.141240679752701E+04     0.236586776386905E+06     0.000000000000000E+00    -0.553308935789644E+05    -0.259348790867045E+06
    -0.100480000000000E+02    -0.744800000000000E+01    -0.507717730683610E+05    -0.230814193629457E+06    -0.260381046315635E+04     0.210129623204808E+06     0.000000000000000E+00    -0.507341240995121E+05    -0.230851842598306E+06
    -0.150720000000000E+02    -0.623200000000000E+01    -0.466459511656820E+05    -0.200601074158935E+06    -0.327376599670187E+04     0.181910858489184E+06     0.000000000000000E+00    -0.465763678886825E+05    -0.200670657435934E+06
    -0.200960000000000E+02    -0.501600000000000E+01    -0.430568459797679E+05    -0.169192828571246E+06    -0.323389161866789E+04     0.152402656899396E+06     0.000000000000000E+00    -0.429739894499970E+05    -0.169275685101017E+06
    -0.251200000000000E+02    -0.380000000000000E+01    -0.399895300054318E+05    -0.137581422251791E+06    -0.248268491801176E+04     0.122655962018808E+06     0.000000000000000E+00    -0.399264126658477E+05    -0.137644539591375E+06
     0.000000000000000E+00    -0.684000000000000E+01    -0.472400137829286E+05    -0.221440650378321E+06    -0.163250808030742E-09     0.202006735447640E+06     0.000000000000000E+00    -0.472400137829286E+05    -0.221440650378321E+06
    -0.435200000000000E+01    -0.623200000000000E+01    -0.446658497071573E+05    -0.207806423271873E+06    -0.141711871148861E+04     0.189480135870215E+06     0.000000000000000E+00    -0.446535408505030E+05    -0.207818732128527E+06
    -0.870400000000000E+01    -0.562400000000000E+01    -0.424825853259785E+05    -0.192721303122641E+06    -0.266912352830751E+04     0.175443279125918E+06     0.000000000000000E+00    -0.424351809462115E+05    -0.192768707502408E+06
    -0.130560000000000E+02    -0.501600000000000E+01    -0.407478144232639E+05    -0.176305002066350E+06    -0.351359206697141E+04     0.159990095366666E+06     0.000000000000000E+00    -0.406568045209101E+05    -0.176396011968704E+06
    -0.174080000000000E+02    -0.440800000000000E+01    -0.394679178313335E+05    -0.158872725820513E+06    -0.377381652007358E+04     0.143424575762449E+06     0.000000000000000E+00    -0.393487643916639E+05    -0.158991879260183E+06
    -0.217600000000000E+02    -0.380000000000000E+01    -0.385863721257450E+05    -0.140967180150808E+06    -0.338183343798371E+04     0.126315289315615E+06     0.000000000000000E+00    -0.384747853351072E+05    -0.141078766941446E+06
     0.000000000000000E+00    -0.380000000000000E+01    -0.326005653156409E+05    -0.156989669750478E+06    -0.402553081990739E-09     0.143494255232334E+06     0.000000000000000E+00    -0.326005653156409E+05    -0.156989669750478E+06
    -0.368000000000000E+01    -0.380000000000000E+01    -0.328086202641015E+05    -0.156409563395243E+06    -0.143955191599547E+04     0.142881041580655E+06     0.000000000000000E+00    -0.327918564058378E+05    -0.156426327253507E+06
    -0.736000000000000E+01    -0.380000000000000E+01    -0.334197632781780E+05    -0.154712295930065E+06    -0.269468704878163E+04     0.141081929382143E+06     0.000000000000000E+00    -0.333599264713381E+05    -0.154772132736905E+06
    -0.110400000000000E+02    -0.380000000000000E+01    -0.343949288639564E+05    -0.152027022156523E+06    -0.360110528812603E+04     0.138221459487130E+06     0.000000000000000E+00    -0.342847903088036E+05    -0.152137160711676E+06
    -0.147200000000000E+02    -0.380000000000000E+01    -0.356690078649131E+05    -0.148569000077249E+06    -0.403473986974796E+04     0.134516000725686E+06     0.000000000000000E+00    -0.355250008770879E+05    -0.148713007065075E+06
    -0.184000000000000E+02    -0.380000000000000E+01    -0.371508474619153E+05    -0.144639590895930E+06    -0.393187404829491E+04     0.130283123404172E+06     0.000000000000000E+00    -0.370072137900839E+05    -0.144783224567761E+06
 zone I=    6 ,j=    6 ,f=point, T="    2"
     0.000000000000000E+00    -0.380000000000000E+01    -0.326005653156409E+05    -0.156989669750478E+06    -0.402553081990739E-09     0.143494255232334E+06     0.000000000000000E+00    -0.326005653156409E+05    -0.156989669750478E+06
    -0.368000000000000E+01    -0.380000000000000E+01    -0.328086202641015E+05    -0.156409563395243E+06    -0.143955191599547E+04     0.142881041580655E+06     0.000000000000000E+00    -0.327918564058378E+05    -0.156426327253507E+06
    -0.736000000000000E+01    -0.380000000000000E+01    -0.334197632781780E+05    -0.154712295930065E+06    -0.269468704878163E+04     0.141081929382143E+06     0.000000000000000E+00    -0.333599264713381E+05    -0.154772132736905E+06
    -0.110400000000000E+02    -0.380000000000000E+01    -0.343949288639564E+05    -0.152027022156523E+06    -0.360110528812603E+04     0.138221459487130E+06     0.000000000000000E+00    -0.342847903088036E+05    -0.152137160711676E+06
    -0.147200000000000E+02    -0.380000000000000E+01    -0.356690078649131E+05    -0.148569000077249E+06    -0.403473986974796E+04     0.134516000725686E+06     0.000000000000000E+00    -0.355250008770879E+05    -0.148713007065075E+06
    -0.184000000000000E+02    -0.380000000000000E+01    -0.371508474619153E+05    -0.144639590895930E+06    -0.393187404829491E+04     0.130283123404172E+06     0.000000000000000E+00    -0.370072137900839E+05    -0.144783224567761E+06
     0.000000000000000E+00    -0.304000000000000E+01    -0.286113047582850E+05    -0.140917093427141E+06    -0.465136664264693E-09     0.129013224416063E+06     0.000000000000000E+00    -0.286113047582850E+05    -0.140917093427141E+06
    -0.386400000000000E+01    -0.304000000000000E+01    -0.288655523647854E+05    -0.140256261927733E+06    -0.160268609123628E+04     0.128312783689787E+06     0.000000000000000E+00    -0.288424977384048E+05    -0.140279316554113E+06
    -0.772800000000000E+01    -0.304000000000000E+01    -0.296114712167511E+05    -0.138328621847786E+06    -0.298606119490787E+04     0.126262751950086E+06     0.000000000000000E+00    -0.295295168526951E+05    -0.138410576211842E+06
    -0.115920000000000E+02    -0.304000000000000E+01    -0.307985894115782E+05    -0.135298736442135E+06    -0.395648886226917E+04     0.123021349258356E+06     0.000000000000000E+00    -0.306490065685439E+05    -0.135448319285170E+06
    -0.154560000000000E+02    -0.304000000000000E+01    -0.323427871115932E+05    -0.131440877802172E+06    -0.437168172221054E+04     0.118865178712168E+06     0.000000000000000E+00    -0.321503055833551E+05    -0.131633359330410E+06
    -0.193200000000000E+02    -0.304000000000000E+01    -0.341262965440535E+05    -0.127139026855843E+06    -0.416637602007692E+04     0.114202575278671E+06     0.000000000000000E+00    -0.339400424849793E+05    -0.127325280914917E+06
     0.000000000000000E+00    -0.228000000000000E+01    -0.244731886798816E+05    -0.124864306791218E+06    -0.526156455851212E-09     0.114604556345411E+06     0.000000000000000E+00    -0.244731886798816E+05    -0.124864306791218E+06
    -0.404800000000000E+01    -0.228000000000000E+01    -0.247811294041073E+05    -0.124115055273666E+06    -0.178467716569014E+04     0.113809029923600E+06     0.000000000000000E+00    -0.247490754497118E+05    -0.124147109228061E+06
    -0.809600000000000E+01    -0.228000000000000E+01    -0.256834872732134E+05    -0.121936415217136E+06    -0.331008268371129E+04     0.111486539314248E+06     0.000000000000000E+00    -0.255697897423616E+05    -0.122050112747987E+06
    -0.121440000000000E+02    -0.228000000000000E+01    -0.271158693764894E+05    -0.118535730110006E+06    -0.434934300939017E+04     0.107835711452586E+06     0.000000000000000E+00    -0.269094135750482E+05    -0.118742185911447E+06
    -0.161920000000000E+02    -0.228000000000000E+01    -0.289709541960842E+05    -0.114258572432909E+06    -0.474038080404237E+04     0.103206450009077E+06     0.000000000000000E+00    -0.287082875061186E+05    -0.114521239122874E+06
    -0.202400000000000E+02    -0.228000000000000E+01    -0.310984916070065E+05    -0.109588743658727E+06    -0.441831303796754E+04     0.981189521058004E+05     0.000000000000000E+00    -0.308505624599996E+05    -0.109836672805734E+06
     0.000000000000000E+00    -0.152000000000000E+01    -0.201777079430064E+05    -0.108833365594655E+06    -0.583934934324921E-09     0.100278778906954E+06     0.000000000000000E+00    -0.201777079430064E+05    -0.108833365594655E+06
    -0.423200000000000E+01    -0.152000000000000E+01    -0.205477327167360E+05    -0.107987486471641E+06    -0.198753607815201E+04     0.993803775625539E+05     0.000000000000000E+00    -0.205025786466207E+05    -0.108032640541757E+06
    -0.846400000000000E+01    -0.152000000000000E+01    -0.216307329518744E+05    -0.105536046070153E+06    -0.367020754326917E+04     0.967643264279179E+05     0.000000000000000E+00    -0.214704958111056E+05    -0.105696283210922E+06
    -0.126960000000000E+02    -0.152000000000000E+01    -0.233454863902727E+05    -0.101737635292854E+06    -0.478361159709679E+04     0.926773565085232E+05     0.000000000000000E+00    -0.230546618457825E+05    -0.102028459837344E+06
    -0.169280000000000E+02    -0.152000000000000E+01    -0.255566226016820E+05    -0.970232389775118E+05    -0.514426907093760E+04     0.875582895628604E+05     0.000000000000000E+00    -0.251882297448164E+05    -0.973916318343774E+05
    -0.211600000000000E+02    -0.152000000000000E+01    -0.280746229837545E+05    -0.919962358970059E+05    -0.469008624043134E+04     0.820653578740297E+05     0.000000000000000E+00    -0.277323327111103E+05    -0.923385261696501E+05
     0.000000000000000E+00    -0.759999999999998E+00    -0.157163778094592E+05    -0.928264475855205E+05    -0.636582945817461E-09     0.860514868078004E+05     0.000000000000000E+00    -0.157163778094592E+05    -0.928264475855205E+05
    -0.441600000000000E+01    -0.759999999999998E+00    -0.161578445235584E+05    -0.918751892977052E+05    -0.221341923512518E+04     0.850430420318035E+05     0.000000000000000E+00    -0.160931955948217E+05    -0.919398382264419E+05
    -0.883200000000000E+01    -0.759999999999998E+00    -0.174484470905753E+05    -0.891279159011239E+05    -0.407013521820913E+04     0.821144809150002E+05     0.000000000000000E+00    -0.172180752728966E+05    -0.893582877188025E+05
    -0.132480000000000E+02    -0.759999999999998E+00    -0.194867927846698E+05    -0.849041317963695E+05    -0.526350141691167E+04     0.775696513318662E+05     0.000000000000000E+00    -0.190659964329369E+05    -0.853249281481025E+05
    -0.176640000000000E+02    -0.759999999999998E+00    -0.221038937294420E+05    -0.797363443177634E+05    -0.558698473829164E+04     0.719557241460821E+05     0.000000000000000E+00    -0.215672786385611E+05    -0.802729594086443E+05
    -0.220800000000000E+02    -0.759999999999998E+00    -0.250631668979319E+05    -0.743700637333556E+05    -0.498422224850727E+04     0.661033040729856E+05     0.000000000000000E+00    -0.245643790272479E+05    -0.748688516040396E+05
     0.000000000000000E+00     0.000000000000000E+00    -0.110807392844248E+05    -0.768458592288036E+05    -0.681990301195935E-09     0.719483143131269E+05     0.000000000000000E+00    -0.110807392844248E+05    -0.768458592288036E+05
    -0.460000000000000E+01     0.000000000000000E+00    -0.116040531640301E+05    -0.757798933687986E+05    -0.246463622981382E+04     0.708245414573225E+05     0.000000000000000E+00    -0.115095394205675E+05    -0.758744071122612E+05
    -0.920000000000000E+01     0.000000000000000E+00    -0.131322021431428E+05    -0.727124594759125E+05    -0.451382165827494E+04     0.675707446894731E+05     0.000000000000000E+00    -0.127921739575882E+05    -0.730524876614671E+05
    -0.138000000000000E+02     0.000000000000000E+00    -0.155398082426551E+05    -0.680349486115305E+05    -0.579349669794822E+04     0.625594407706576E+05     0.000000000000000E+00    -0.149080267872910E+05    -0.686667300668947E+05
    -0.184000000000000E+02     0.000000000000000E+00    -0.186179081640542E+05    -0.623996792112947E+05    -0.607238418923032E+04     0.564731486839556E+05     0.000000000000000E+00    -0.177912956135057E+05    -0.632262917618432E+05
    -0.230000000000000E+02     0.000000000000000E+00    -0.220739532894217E+05    -0.567198970851040E+05    -0.530338061426655E+04     0.503661723595342E+05     0.000000000000000E+00    -0.212803250284810E+05    -0.575135253460446E+05
 zone I=    6 ,j=    6 ,f=point, T="    2"
    -0.184000000000000E+02    -0.380000000000000E+01    -0.371508474619153E+05    -0.144639590895930E+06    -0.393187404829491E+04     0.130283123404172E+06     0.000000000000000E+00    -0.370072137900839E+05    -0.144783224567761E+06
    -0.217600000000000E+02    -0.380000000000000E+01    -0.385863721257450E+05    -0.140967180150808E+06    -0.338183343798371E+04     0.126315289315615E+06     0.000000000000000E+00    -0.384747853351072E+05    -0.141078766941446E+06
    -0.251200000000000E+02    -0.380000000000000E+01    -0.399895300054318E+05    -0.137581422251791E+06    -0.248268491801176E+04     0.122655962018808E+06     0.000000000000000E+00    -0.399264126658477E+05    -0.137644539591375E+06
    -0.284800000000000E+02    -0.380000000000000E+01    -0.412340551583302E+05    -0.134899766234708E+06    -0.140243927822185E+04     0.119756546130049E+06     0.000000000000000E+00    -0.412130614011840E+05    -0.134920759991854E+06
    -0.318400000000000E+02    -0.380000000000000E+01    -0.421755820868763E+05    -0.133399500246324E+06    -0.404539260467175E+03     0.118103750039483E+06     0.000000000000000E+00    -0.421737881626687E+05    -0.133401294170532E+06
    -0.352000000000000E+02    -0.380000000000000E+01    -0.426516457385876E+05    -0.133617751544346E+06     0.139375657998812E+03     0.118211284086768E+06     0.000000000000000E+00    -0.426514321917037E+05    -0.133617965091230E+06
    -0.193200000000000E+02    -0.304000000000000E+01    -0.341262965440535E+05    -0.127139026855843E+06    -0.416637602007692E+04     0.114202575278671E+06     0.000000000000000E+00    -0.339400424849793E+05    -0.127325280914917E+06
    -0.228480000000000E+02    -0.304000000000000E+01    -0.358359351451131E+05    -0.123240132996297E+06    -0.346649492889925E+04     0.109963489289016E+06     0.000000000000000E+00    -0.356986677706055E+05    -0.123377400370805E+06
    -0.263760000000000E+02    -0.304000000000000E+01    -0.374794879885985E+05    -0.119837052011278E+06    -0.240020399293203E+04     0.106261388287649E+06     0.000000000000000E+00    -0.374095964801131E+05    -0.119906943519763E+06
    -0.299040000000000E+02    -0.304000000000000E+01    -0.388938217893292E+05    -0.117461678737240E+06    -0.119415399890785E+04     0.103661563544973E+06     0.000000000000000E+00    -0.388756760162433E+05    -0.117479824510326E+06
    -0.334320000000000E+02    -0.304000000000000E+01    -0.398924189686858E+05    -0.116722152321668E+06    -0.196793774383546E+03     0.102758226501833E+06     0.000000000000000E+00    -0.398919148990521E+05    -0.116722656391302E+06
    -0.369600000000000E+02    -0.304000000000000E+01    -0.402653776546100E+05    -0.118302856223072E+06     0.105338354569998E+03     0.104179607089252E+06     0.000000000000000E+00    -0.402652354646146E+05    -0.118302998413067E+06
    -0.202400000000000E+02    -0.228000000000000E+01    -0.310984916070065E+05    -0.109588743658727E+06    -0.441831303796754E+04     0.981189521058004E+05     0.000000000000000E+00    -0.308505624599996E+05    -0.109836672805734E+06
    -0.239360000000000E+02    -0.228000000000000E+01    -0.331159408753940E+05    -0.105507002395089E+06    -0.355348239098954E+04     0.936606168702367E+05     0.000000000000000E+00    -0.329419282769569E+05    -0.105681014993526E+06
    -0.276320000000000E+02    -0.228000000000000E+01    -0.350216786386664E+05    -0.102188971208092E+06    -0.231241308345218E+04     0.900350835173604E+05     0.000000000000000E+00    -0.349421617914745E+05    -0.102268488055284E+06
    -0.313280000000000E+02    -0.228000000000000E+01    -0.366075766804381E+05    -0.100304817511186E+06    -0.994409242355141E+03     0.879330503117694E+05     0.000000000000000E+00    -0.365920562458871E+05    -0.100320337945737E+06
    -0.350240000000000E+02    -0.228000000000000E+01    -0.376356727055242E+05    -0.100620773671283E+06    -0.524691077303796E+02     0.880571502375460E+05     0.000000000000000E+00    -0.376356289966897E+05    -0.100620817380118E+06
    -0.387200000000000E+02    -0.228000000000000E+01    -0.378381703399406E+05    -0.103999137008763E+06    -0.113842843939322E+03     0.911726354367181E+05     0.000000000000000E+00    -0.378379744517093E+05    -0.103999332896994E+06
    -0.211600000000000E+02    -0.152000000000000E+01    -0.280746229837545E+05    -0.919962358970059E+05    -0.469008624043134E+04     0.820653578740297E+05     0.000000000000000E+00    -0.277323327111103E+05    -0.923385261696501E+05
    -0.250240000000000E+02    -0.152000000000000E+01    -0.304360265190213E+05    -0.877880512486816E+05    -0.364478674344447E+04     0.774662998191162E+05     0.000000000000000E+00    -0.302053241699121E+05    -0.880187535977909E+05
    -0.288880000000000E+02    -0.152000000000000E+01    -0.326258481978655E+05    -0.846799905882457E+05    -0.222295946007869E+04     0.740757376244760E+05     0.000000000000000E+00    -0.325310897526830E+05    -0.847747490334281E+05
    -0.327520000000000E+02    -0.152000000000000E+01    -0.343815646534625E+05    -0.835078611924714E+05    -0.812818741646741E+03     0.727083624022731E+05     0.000000000000000E+00    -0.343681198471065E+05    -0.835213059988274E+05
    -0.366160000000000E+02    -0.152000000000000E+01    -0.354030211831287E+05    -0.852272788897520E+05     0.547331794545796E+01     0.741603661385375E+05     0.000000000000000E+00    -0.354030205818712E+05    -0.852272794910095E+05
    -0.404800000000000E+02    -0.152000000000000E+01    -0.353524317483221E+05    -0.909136680600995E+05    -0.565867656619430E+03     0.793853314170312E+05     0.000000000000000E+00    -0.353466692235950E+05    -0.909194305848267E+05
    -0.220800000000000E+02    -0.759999999999998E+00    -0.250631668979319E+05    -0.743700637333556E+05    -0.498422224850727E+04     0.661033040729856E+05     0.000000000000000E+00    -0.245643790272479E+05    -0.748688516040396E+05
    -0.261120000000000E+02    -0.759999999999998E+00    -0.278072401393626E+05    -0.701059857336335E+05    -0.374252855678249E+04     0.614870508265418E+05     0.000000000000000E+00    -0.274786593628788E+05    -0.704345665101174E+05
    -0.301440000000000E+02    -0.759999999999998E+00    -0.303030272477700E+05    -0.673576945840328E+05    -0.213585193766668E+04     0.585480658623914E+05     0.000000000000000E+00    -0.301803218717088E+05    -0.674803999600940E+05
    -0.341760000000000E+02    -0.759999999999998E+00    -0.322228106693011E+05    -0.671578797574921E+05    -0.660035636461356E+03     0.581874697653905E+05     0.000000000000000E+00    -0.322103449247648E+05    -0.671703455020284E+05
    -0.382080000000000E+02    -0.759999999999998E+00    -0.331918962724176E+05    -0.706872612998627E+05    -0.483881332944419E+02     0.612548256680403E+05     0.000000000000000E+00    -0.331918338271649E+05    -0.706873237451154E+05
    -0.422400000000000E+02    -0.759999999999998E+00    -0.327886133478958E+05    -0.792745898299086E+05    -0.130344600892510E+04     0.690314913516049E+05     0.000000000000000E+00    -0.327520939938145E+05    -0.793111091839899E+05
    -0.230000000000000E+02     0.000000000000000E+00    -0.220739532894217E+05    -0.567198970851040E+05    -0.530338061426655E+04     0.503661723595342E+05     0.000000000000000E+00    -0.212803250284810E+05    -0.575135253460447E+05
    -0.272000000000000E+02     0.000000000000000E+00    -0.252421171441378E+05    -0.524860596480824E+05    -0.384896414885402E+04     0.459514444200270E+05     0.000000000000000E+00    -0.247087845912205E+05    -0.530193922009997E+05
    -0.314000000000000E+02     0.000000000000000E+00    -0.280656044371972E+05    -0.502746485007590E+05    -0.205547503609460E+04     0.437824733098837E+05     0.000000000000000E+00    -0.278769698164599E+05    -0.504632831214962E+05
    -0.356000000000000E+02     0.000000000000000E+00    -0.301391734288218E+05    -0.513507023347600E+05    -0.547793891553943E+03     0.447045514050802E+05     0.000000000000000E+00    -0.301250359152242E+05    -0.513648398483576E+05
    -0.398000000000000E+02     0.000000000000000E+00    -0.309994931196070E+05    -0.571605964459721E+05    -0.242036535907475E+03     0.495633795109498E+05     0.000000000000000E+00    -0.309972540446518E+05    -0.571628355209273E+05
    -0.440000000000000E+02     0.000000000000000E+00    -0.301251432505211E+05    -0.693320427345426E+05    -0.238450902237539E+04     0.603562452130091E+05     0.000000000000000E+00    -0.299806532249173E+05    -0.694765327601464E+05
