 Version
   1.400000    
 CONTROL PARAMETER
         115          31      5           1           2           2
          13           0          33           0          20          20
           0           0           0           0
           0           0           0
 OPTION
          1           0
 MATERIALS
   1.000000    
    1      0.2500E+08          0.3500      0.1000E+09      0.7200E+04
    2      0.5500E+08          0.3000      0.1000E+09      0.7200E+04
    3      0.3500E+08          0.3000      0.1000E+09      0.7200E+04
    4      0.7500E+09          0.3500      0.1000E+09      0.7200E+04
    5      0.7500E+10          0.2500      0.1000E+09      0.7200E+04
 CONNECTIVITY-materail
      1
      1
      1
      1
      1
      1
      1
      1
      3
      3
      3
      3
      3
      3
      3
      4
      4
      4
      4
      4
      4
      4
      5
      5
      5
      5
      5
      5
      5
      5
      5
 OUTPUT
               0         10          2          0    0.00000
 STRESS X range:
  -678451.420700983           754149.513049630     
 STRESS Y range:
  -13136515.8400000           33954.1558329435     
 STRESS XY range:
  -164528.415847593           218030.296334573     
 »æÍ¼µÄ·¶Î§²ÎÊý
  -827.829000000000          -570.678000000000     
  -478.736000000000          -322.236000000000     
